# vtk DataFile Version 2.0
topWall
ASCII
DATASET POLYDATA
POINTS 1092 float
-0.333333 1 0 -0.333333 1 0.1 -0.323977 1 0.1 -0.323977 1
0 -0.314868 1 0.1 -0.314868 1 0 -0.305998 1 0.1
-0.305998 1 0 -0.297363 1 0.1 -0.297363 1 0 -0.288955
1 0.1 -0.288955 1 0 -0.280769 1 0.1 -0.280769 1
0 -0.272799 1 0.1 -0.272799 1 0 -0.265039 1 0.1
-0.265039 1 0 -0.257483 1 0.1 -0.257483 1 0 -0.250127
1 0.1 -0.250127 1 0 -0.242965 1 0.1 -0.242965 1
0 -0.235991 1 0.1 -0.235991 1 0 -0.229201 1 0.1
-0.229201 1 0 -0.222591 1 0.1 -0.222591 1 0 -0.216154
1 0.1 -0.216154 1 0 -0.209888 1 0.1 -0.209888 1
0 -0.203786 1 0.1 -0.203786 1 0 -0.197846 1 0.1
-0.197846 1 0 -0.192062 1 0.1 -0.192062 1 0 -0.186431
1 0.1 -0.186431 1 0 -0.180948 1 0.1 -0.180948 1
0 -0.175609 1 0.1 -0.175609 1 0 -0.170412 1 0.1
-0.170412 1 0 -0.165351 1 0.1 -0.165351 1 0 -0.160424
1 0.1 -0.160424 1 0 -0.155627 1 0.1 -0.155627 1
0 -0.150956 1 0.1 -0.150956 1 0 -0.146409 1 0.1
-0.146409 1 0 -0.141981 1 0.1 -0.141981 1 0 -0.13767
1 0.1 -0.13767 1 0 -0.133473 1 0.1 -0.133473 1
0 -0.129386 1 0.1 -0.129386 1 0 -0.125407 1 0.1
-0.125407 1 0 -0.121533 1 0.1 -0.121533 1 0 -0.117761
1 0.1 -0.117761 1 0 -0.114089 1 0.1 -0.114089 1
0 -0.110514 1 0.1 -0.110514 1 0 -0.107032 1 0.1
-0.107032 1 0 -0.103643 1 0.1 -0.103643 1 0 -0.100343
1 0.1 -0.100343 1 0 -0.0971296 1 0.1 -0.0971296 1
0 -0.0940012 1 0.1 -0.0940012 1 0 -0.0909553 1 0.1
-0.0909553 1 0 -0.0879897 1 0.1 -0.0879897 1 0 -0.0851023
1 0.1 -0.0851023 1 0 -0.082291 1 0.1 -0.082291 1
0 -0.0795539 1 0.1 -0.0795539 1 0 -0.0768889 1 0.1
-0.0768889 1 0 -0.0742942 1 0.1 -0.0742942 1 0 -0.0717679
1 0.1 -0.0717679 1 0 -0.0693082 1 0.1 -0.0693082 1
0 -0.0669134 1 0.1 -0.0669134 1 0 -0.0645817 1 0.1
-0.0645817 1 0 -0.0623114 1 0.1 -0.0623114 1 0 -0.0601011
1 0.1 -0.0601011 1 0 -0.057949 1 0.1 -0.057949 1
0 -0.0558536 1 0.1 -0.0558536 1 0 -0.0538136 1 0.1
-0.0538136 1 0 -0.0518272 1 0.1 -0.0518272 1 0 -0.0498933
1 0.1 -0.0498933 1 0 -0.0480104 1 0.1 -0.0480104 1
0 -0.0461771 1 0.1 -0.0461771 1 0 -0.0443921 1 0.1
-0.0443921 1 0 -0.0426542 1 0.1 -0.0426542 1 0 -0.0409621
1 0.1 -0.0409621 1 0 -0.0393147 1 0.1 -0.0393147 1
0 -0.0377106 1 0.1 -0.0377106 1 0 -0.0361489 1 0.1
-0.0361489 1 0 -0.0346284 1 0.1 -0.0346284 1 0 -0.0331479
1 0.1 -0.0331479 1 0 -0.0317065 1 0.1 -0.0317065 1
0 -0.030303 1 0.1 -0.030303 1 0 -0.0289728 1 0.1
-0.0289728 1 0 -0.0276486 1 0.1 -0.0276486 1 0 -0.0263305
1 0.1 -0.0263305 1 0 -0.0250184 1 0.1 -0.0250184 1
0 -0.0237123 1 0.1 -0.0237123 1 0 -0.0224121 1 0.1
-0.0224121 1 0 -0.0211179 1 0.1 -0.0211179 1 0 -0.0198297
1 0.1 -0.0198297 1 0 -0.0185473 1 0.1 -0.0185473 1
0 -0.0172708 1 0.1 -0.0172708 1 0 -0.0160001 1 0.1
-0.0160001 1 0 -0.0147352 1 0.1 -0.0147352 1 0 -0.0134761
1 0.1 -0.0134761 1 0 -0.0122227 1 0.1 -0.0122227 1
0 -0.0109751 1 0.1 -0.0109751 1 0 -0.00973318 1 0.1
-0.00973318 1 0 -0.00849694 1 0.1 -0.00849694 1 0 -0.00726634
1 0.1 -0.00726634 1 0 -0.00604137 1 0.1 -0.00604137 1
0 -0.004822 1 0.1 -0.004822 1 0 -0.00360821 1 0.1
-0.00360821 1 0 -0.00239996 1 0.1 -0.00239996 1 0 -0.00119723
1 0.1 -0.00119723 1 0 0 1 0.1 0 1
0 0.000971417 1 0.1 0.000971417 1 0 0.00194513 1 0.1
0.00194513 1 0 0.00292113 1 0.1 0.00292113 1 0 0.00389944
1 0.1 0.00389944 1 0 0.00488006 1 0.1 0.00488006 1
0 0.005863 1 0.1 0.005863 1 0 0.00684825 1 0.1
0.00684825 1 0 0.00783583 1 0.1 0.00783583 1 0 0.00882574
1 0.1 0.00882574 1 0 0.00981799 1 0.1 0.00981799 1
0 0.0108126 1 0.1 0.0108126 1 0 0.0118095 1 0.1
0.0118095 1 0 0.0128088 1 0.1 0.0128088 1 0 0.0138104
1 0.1 0.0138104 1 0 0.0148145 1 0.1 0.0148145 1
0 0.0158208 1 0.1 0.0158208 1 0 0.0168296 1 0.1
0.0168296 1 0 0.0178407 1 0.1 0.0178407 1 0 0.0188543
1 0.1 0.0188543 1 0 0.0198702 1 0.1 0.0198702 1
0 0.0208885 1 0.1 0.0208885 1 0 0.0219092 1 0.1
0.0219092 1 0 0.0229323 1 0.1 0.0229323 1 0 0.0239579
1 0.1 0.0239579 1 0 0.0249858 1 0.1 0.0249858 1
0 0.0260162 1 0.1 0.0260162 1 0 0.027049 1 0.1
0.027049 1 0 0.0280843 1 0.1 0.0280843 1 0 0.029122
1 0.1 0.029122 1 0 0.0301621 1 0.1 0.0301621 1
0 0.0312047 1 0.1 0.0312047 1 0 0.0322498 1 0.1
0.0322498 1 0 0.0332973 1 0.1 0.0332973 1 0 0.0343473
1 0.1 0.0343473 1 0 0.0353998 1 0.1 0.0353998 1
0 0.0364548 1 0.1 0.0364548 1 0 0.0375122 1 0.1
0.0375122 1 0 0.0385722 1 0.1 0.0385722 1 0 0.0396346
1 0.1 0.0396346 1 0 0.0406996 1 0.1 0.0406996 1
0 0.0417671 1 0.1 0.0417671 1 0 0.0428371 1 0.1
0.0428371 1 0 0.0439096 1 0.1 0.0439096 1 0 0.0449846
1 0.1 0.0449846 1 0 0.0460622 1 0.1 0.0460622 1
0 0.0471424 1 0.1 0.0471424 1 0 0.048225 1 0.1
0.048225 1 0 0.0493103 1 0.1 0.0493103 1 0 0.0503981
1 0.1 0.0503981 1 0 0.0514884 1 0.1 0.0514884 1
0 0.0525814 1 0.1 0.0525814 1 0 0.0536769 1 0.1
0.0536769 1 0 0.054775 1 0.1 0.054775 1 0 0.0558757
1 0.1 0.0558757 1 0 0.056979 1 0.1 0.056979 1
0 0.0580849 1 0.1 0.0580849 1 0 0.0591934 1 0.1
0.0591934 1 0 0.0603045 1 0.1 0.0603045 1 0 0.0614182
1 0.1 0.0614182 1 0 0.0625346 1 0.1 0.0625346 1
0 0.0636536 1 0.1 0.0636536 1 0 0.0647753 1 0.1
0.0647753 1 0 0.0658996 1 0.1 0.0658996 1 0 0.0670265
1 0.1 0.0670265 1 0 0.0681561 1 0.1 0.0681561 1
0 0.0692884 1 0.1 0.0692884 1 0 0.0704233 1 0.1
0.0704233 1 0 0.0715609 1 0.1 0.0715609 1 0 0.0727013
1 0.1 0.0727013 1 0 0.0738443 1 0.1 0.0738443 1
0 0.07499 1 0.1 0.07499 1 0 0.0761384 1 0.1
0.0761384 1 0 0.0772895 1 0.1 0.0772895 1 0 0.0784433
1 0.1 0.0784433 1 0 0.0795999 1 0.1 0.0795999 1
0 0.0807591 1 0.1 0.0807591 1 0 0.0819212 1 0.1
0.0819212 1 0 0.0830859 1 0.1 0.0830859 1 0 0.0842534
1 0.1 0.0842534 1 0 0.0854237 1 0.1 0.0854237 1
0 0.0865967 1 0.1 0.0865967 1 0 0.0877725 1 0.1
0.0877725 1 0 0.0889511 1 0.1 0.0889511 1 0 0.0901325
1 0.1 0.0901325 1 0 0.0913166 1 0.1 0.0913166 1
0 0.0925035 1 0.1 0.0925035 1 0 0.0936933 1 0.1
0.0936933 1 0 0.0948858 1 0.1 0.0948858 1 0 0.0960812
1 0.1 0.0960812 1 0 0.0972794 1 0.1 0.0972794 1
0 0.0984804 1 0.1 0.0984804 1 0 0.0996842 1 0.1
0.0996842 1 0 0.100891 1 0.1 0.100891 1 0 0.1021
1 0.1 0.1021 1 0 0.103313 1 0.1 0.103313 1
0 0.104528 1 0.1 0.104528 1 0 0.105746 1 0.1
0.105746 1 0 0.106967 1 0.1 0.106967 1 0 0.108191
1 0.1 0.108191 1 0 0.109418 1 0.1 0.109418 1
0 0.110647 1 0.1 0.110647 1 0 0.11188 1 0.1
0.11188 1 0 0.113115 1 0.1 0.113115 1 0 0.114354
1 0.1 0.114354 1 0 0.115595 1 0.1 0.115595 1
0 0.116839 1 0.1 0.116839 1 0 0.118087 1 0.1
0.118087 1 0 0.119337 1 0.1 0.119337 1 0 0.12059
1 0.1 0.12059 1 0 0.121846 1 0.1 0.121846 1
0 0.123105 1 0.1 0.123105 1 0 0.124367 1 0.1
0.124367 1 0 0.125632 1 0.1 0.125632 1 0 0.1269
1 0.1 0.1269 1 0 0.128171 1 0.1 0.128171 1
0 0.129444 1 0.1 0.129444 1 0 0.130721 1 0.1
0.130721 1 0 0.132001 1 0.1 0.132001 1 0 0.133284
1 0.1 0.133284 1 0 0.13457 1 0.1 0.13457 1
0 0.135859 1 0.1 0.135859 1 0 0.137151 1 0.1
0.137151 1 0 0.138446 1 0.1 0.138446 1 0 0.139745
1 0.1 0.139745 1 0 0.141046 1 0.1 0.141046 1
0 0.14235 1 0.1 0.14235 1 0 0.143658 1 0.1
0.143658 1 0 0.144968 1 0.1 0.144968 1 0 0.146282
1 0.1 0.146282 1 0 0.147598 1 0.1 0.147598 1
0 0.148918 1 0.1 0.148918 1 0 0.150241 1 0.1
0.150241 1 0 0.151567 1 0.1 0.151567 1 0 0.152896
1 0.1 0.152896 1 0 0.154228 1 0.1 0.154228 1
0 0.155564 1 0.1 0.155564 1 0 0.156902 1 0.1
0.156902 1 0 0.158244 1 0.1 0.158244 1 0 0.159589
1 0.1 0.159589 1 0 0.160937 1 0.1 0.160937 1
0 0.162288 1 0.1 0.162288 1 0 0.163643 1 0.1
0.163643 1 0 0.165 1 0.1 0.165 1 0 0.166361
1 0.1 0.166361 1 0 0.167725 1 0.1 0.167725 1
0 0.169092 1 0.1 0.169092 1 0 0.170463 1 0.1
0.170463 1 0 0.171837 1 0.1 0.171837 1 0 0.173214
1 0.1 0.173214 1 0 0.174594 1 0.1 0.174594 1
0 0.175977 1 0.1 0.175977 1 0 0.177364 1 0.1
0.177364 1 0 0.178754 1 0.1 0.178754 1 0 0.180147
1 0.1 0.180147 1 0 0.181544 1 0.1 0.181544 1
0 0.182944 1 0.1 0.182944 1 0 0.184347 1 0.1
0.184347 1 0 0.185754 1 0.1 0.185754 1 0 0.187163
1 0.1 0.187163 1 0 0.188577 1 0.1 0.188577 1
0 0.189993 1 0.1 0.189993 1 0 0.191413 1 0.1
0.191413 1 0 0.192836 1 0.1 0.192836 1 0 0.194263
1 0.1 0.194263 1 0 0.195692 1 0.1 0.195692 1
0 0.197126 1 0.1 0.197126 1 0 0.198562 1 0.1
0.198562 1 0 0.200002 1 0.1 0.200002 1 0 0.201446
1 0.1 0.201446 1 0 0.202893 1 0.1 0.202893 1
0 0.204343 1 0.1 0.204343 1 0 0.205797 1 0.1
0.205797 1 0 0.207254 1 0.1 0.207254 1 0 0.208552
1 0.1 0.208552 1 0 0.209863 1 0.1 0.209863 1
0 0.211189 1 0.1 0.211189 1 0 0.21253 1 0.1
0.21253 1 0 0.213885 1 0.1 0.213885 1 0 0.215254
1 0.1 0.215254 1 0 0.216639 1 0.1 0.216639 1
0 0.218038 1 0.1 0.218038 1 0 0.219453 1 0.1
0.219453 1 0 0.220884 1 0.1 0.220884 1 0 0.222329
1 0.1 0.222329 1 0 0.223791 1 0.1 0.223791 1
0 0.225268 1 0.1 0.225268 1 0 0.226762 1 0.1
0.226762 1 0 0.228271 1 0.1 0.228271 1 0 0.229797
1 0.1 0.229797 1 0 0.23134 1 0.1 0.23134 1
0 0.232899 1 0.1 0.232899 1 0 0.234476 1 0.1
0.234476 1 0 0.236069 1 0.1 0.236069 1 0 0.23768
1 0.1 0.23768 1 0 0.239308 1 0.1 0.239308 1
0 0.240954 1 0.1 0.240954 1 0 0.242618 1 0.1
0.242618 1 0 0.2443 1 0.1 0.2443 1 0 0.246001
1 0.1 0.246001 1 0 0.247719 1 0.1 0.247719 1
0 0.249457 1 0.1 0.249457 1 0 0.251213 1 0.1
0.251213 1 0 0.252988 1 0.1 0.252988 1 0 0.254783
1 0.1 0.254783 1 0 0.256597 1 0.1 0.256597 1
0 0.258431 1 0.1 0.258431 1 0 0.260285 1 0.1
0.260285 1 0 0.262159 1 0.1 0.262159 1 0 0.264054
1 0.1 0.264054 1 0 0.265969 1 0.1 0.265969 1
0 0.267904 1 0.1 0.267904 1 0 0.269861 1 0.1
0.269861 1 0 0.271839 1 0.1 0.271839 1 0 0.273839
1 0.1 0.273839 1 0 0.27586 1 0.1 0.27586 1
0 0.277904 1 0.1 0.277904 1 0 0.279969 1 0.1
0.279969 1 0 0.282057 1 0.1 0.282057 1 0 0.284168
1 0.1 0.284168 1 0 0.286302 1 0.1 0.286302 1
0 0.288458 1 0.1 0.288458 1 0 0.290639 1 0.1
0.290639 1 0 0.292843 1 0.1 0.292843 1 0 0.29507
1 0.1 0.29507 1 0 0.297323 1 0.1 0.297323 1
0 0.299599 1 0.1 0.299599 1 0 0.301901 1 0.1
0.301901 1 0 0.304227 1 0.1 0.304227 1 0 0.306578
1 0.1 0.306578 1 0 0.308956 1 0.1 0.308956 1
0 0.311359 1 0.1 0.311359 1 0 0.313788 1 0.1
0.313788 1 0 0.316243 1 0.1 0.316243 1 0 0.318726
1 0.1 0.318726 1 0 0.321235 1 0.1 0.321235 1
0 0.323771 1 0.1 0.323771 1 0 0.326336 1 0.1
0.326336 1 0 0.328927 1 0.1 0.328927 1 0 0.331548
1 0.1 0.331548 1 0 0.334196 1 0.1 0.334196 1
0 0.336874 1 0.1 0.336874 1 0 0.33958 1 0.1
0.33958 1 0 0.342316 1 0.1 0.342316 1 0 0.345082
1 0.1 0.345082 1 0 0.347877 1 0.1 0.347877 1
0 0.350703 1 0.1 0.350703 1 0 0.35356 1 0.1
0.35356 1 0 0.356448 1 0.1 0.356448 1 0 0.359367
1 0.1 0.359367 1 0 0.362318 1 0.1 0.362318 1
0 0.365301 1 0.1 0.365301 1 0 0.368317 1 0.1
0.368317 1 0 0.371365 1 0.1 0.371365 1 0 0.374446
1 0.1 0.374446 1 0 0.377561 1 0.1 0.377561 1
0 0.38071 1 0.1 0.38071 1 0 0.383893 1 0.1
0.383893 1 0 0.387111 1 0.1 0.387111 1 0 0.390363
1 0.1 0.390363 1 0 0.393651 1 0.1 0.393651 1
0 0.396975 1 0.1 0.396975 1 0 0.400334 1 0.1
0.400334 1 0 0.403731 1 0.1 0.403731 1 0 0.407164
1 0.1 0.407164 1 0 0.410634 1 0.1 0.410634 1
0 0.414142 1 0.1 0.414142 1 0 0.417689 1 0.1
0.417689 1 0 0.421274 1 0.1 0.421274 1 0 0.424898
1 0.1 0.424898 1 0 0.428561 1 0.1 0.428561 1
0 0.432264 1 0.1 0.432264 1 0 0.436007 1 0.1
0.436007 1 0 0.439791 1 0.1 0.439791 1 0 0.443616
1 0.1 0.443616 1 0 0.447483 1 0.1 0.447483 1
0 0.451392 1 0.1 0.451392 1 0 0.455343 1 0.1
0.455343 1 0 0.459337 1 0.1 0.459337 1 0 0.463375
1 0.1 0.463375 1 0 0.467456 1 0.1 0.467456 1
0 0.471582 1 0.1 0.471582 1 0 0.475753 1 0.1
0.475753 1 0 0.479969 1 0.1 0.479969 1 0 0.48423
1 0.1 0.48423 1 0 0.488539 1 0.1 0.488539 1
0 0.492894 1 0.1 0.492894 1 0 0.497296 1 0.1
0.497296 1 0 0.501746 1 0.1 0.501746 1 0 0.506245
1 0.1 0.506245 1 0 0.510792 1 0.1 0.510792 1
0 0.515389 1 0.1 0.515389 1 0 0.520036 1 0.1
0.520036 1 0 0.524733 1 0.1 0.524733 1 0 0.529481
1 0.1 0.529481 1 0 0.534281 1 0.1 0.534281 1
0 0.539134 1 0.1 0.539134 1 0 0.544038 1 0.1
0.544038 1 0 0.548997 1 0.1 0.548997 1 0 0.554009
1 0.1 0.554009 1 0 0.559075 1 0.1 0.559075 1
0 0.564197 1 0.1 0.564197 1 0 0.569374 1 0.1
0.569374 1 0 0.574608 1 0.1 0.574608 1 0 0.579898
1 0.1 0.579898 1 0 0.585246 1 0.1 0.585246 1
0 0.590653 1 0.1 0.590653 1 0 0.596117 1 0.1
0.596117 1 0 0.601642 1 0.1 0.601642 1 0 0.607226
1 0.1 0.607226 1 0 0.612871 1 0.1 0.612871 1
0 0.618577 1 0.1 0.618577 1 0 0.624346 1 0.1
0.624346 1 0 0.630177 1 0.1 0.630177 1 0 0.636071
1 0.1 0.636071 1 0 0.64203 1 0.1 0.64203 1
0 0.648053 1 0.1 0.648053 1 0 0.654142 1 0.1
0.654142 1 0 0.660297 1 0.1 0.660297 1 0 0.666519
1 0.1 0.666519 1 0 0.672808 1 0.1 0.672808 1
0 0.679166 1 0.1 0.679166 1 0 0.685593 1 0.1
0.685593 1 0 0.69209 1 0.1 0.69209 1 0 0.698657
1 0.1 0.698657 1 0 0.705296 1 0.1 0.705296 1
0 0.712007 1 0.1 0.712007 1 0 0.718791 1 0.1
0.718791 1 0 0.725649 1 0.1 0.725649 1 0 0.732581
1 0.1 0.732581 1 0 0.739588 1 0.1 0.739588 1
0 0.746672 1 0.1 0.746672 1 0 0.753833 1 0.1
0.753833 1 0 0.761071 1 0.1 0.761071 1 0 0.768389
1 0.1 0.768389 1 0 0.775785 1 0.1 0.775785 1
0 0.783262 1 0.1 0.783262 1 0 0.790821 1 0.1
0.790821 1 0 0.798461 1 0.1 0.798461 1 0 0.806185
1 0.1 0.806185 1 0 0.813993 1 0.1 0.813993 1
0 0.821885 1 0.1 0.821885 1 0 0.829863 1 0.1
0.829863 1 0 0.837928 1 0.1 0.837928 1 0 0.846081
1 0.1 0.846081 1 0 0.854322 1 0.1 0.854322 1
0 0.862653 1 0.1 0.862653 1 0 0.871074 1 0.1
0.871074 1 0 0.879587 1 0.1 0.879587 1 0 0.888192
1 0.1 0.888192 1 0 0.896891 1 0.1 0.896891 1
0 0.905684 1 0.1 0.905684 1 0 0.914573 1 0.1
0.914573 1 0 0.923559 1 0.1 0.923559 1 0 0.932642
1 0.1 0.932642 1 0 0.943878 1 0.1 0.943878 1
0 0.955113 1 0.1 0.955113 1 0 0.966349 1 0.1
0.966349 1 0 0.977584 1 0.1 0.977584 1 0 0.988819
1 0.1 0.988819 1 0 1.00005 1 0.1 1.00005 1
0 1.01129 1 0.1 1.01129 1 0 1.02253 1 0.1
1.02253 1 0 1.03376 1 0.1 1.03376 1 0 1.045
1 0.1 1.045 1 0 1.05623 1 0.1 1.05623 1
0 1.06747 1 0.1 1.06747 1 0 1.0787 1 0.1
1.0787 1 0 1.08994 1 0.1 1.08994 1 0 1.10117
1 0.1 1.10117 1 0 1.11241 1 0.1 1.11241 1
0 1.12364 1 0.1 1.12364 1 0 1.13488 1 0.1
1.13488 1 0 1.14611 1 0.1 1.14611 1 0 1.15735
1 0.1 1.15735 1 0 1.16858 1 0.1 1.16858 1
0 1.17982 1 0.1 1.17982 1 0 1.19106 1 0.1
1.19106 1 0 1.20229 1 0.1 1.20229 1 0 1.21353
1 0.1 1.21353 1 0 1.22476 1 0.1 1.22476 1
0 1.236 1 0.1 1.236 1 0 1.24723 1 0.1
1.24723 1 0 1.25847 1 0.1 1.25847 1 0 1.2697
1 0.1 1.2697 1 0 1.28094 1 0.1 1.28094 1
0 1.29217 1 0.1 1.29217 1 0 1.30341 1 0.1
1.30341 1 0 1.31464 1 0.1 1.31464 1 0 1.32588
1 0.1 1.32588 1 0 1.33711 1 0.1 1.33711 1
0 1.34835 1 0.1 1.34835 1 0 1.35959 1 0.1
1.35959 1 0 1.37082 1 0.1 1.37082 1 0 1.38206
1 0.1 1.38206 1 0 1.39329 1 0.1 1.39329 1
0 1.40453 1 0.1 1.40453 1 0 1.41576 1 0.1
1.41576 1 0 1.427 1 0.1 1.427 1 0 1.43823
1 0.1 1.43823 1 0 1.44947 1 0.1 1.44947 1
0 1.4607 1 0.1 1.4607 1 0 1.47194 1 0.1
1.47194 1 0 1.48317 1 0.1 1.48317 1 0 1.49441
1 0.1 1.49441 1 0 1.50564 1 0.1 1.50564 1
0 1.51688 1 0.1 1.51688 1 0 1.52812 1 0.1
1.52812 1 0 1.53935 1 0.1 1.53935 1 0 1.55059
1 0.1 1.55059 1 0 1.56182 1 0.1 1.56182 1
0 1.57306 1 0.1 1.57306 1 0 1.58429 1 0.1
1.58429 1 0 1.59553 1 0.1 1.59553 1 0 1.60676
1 0.1 1.60676 1 0 1.618 1 0.1 1.618 1
0 1.62923 1 0.1 1.62923 1 0 1.64047 1 0.1
1.64047 1 0 1.6517 1 0.1 1.6517 1 0 1.66294
1 0.1 1.66294 1 0 1.67418 1 0.1 1.67418 1
0 1.68541 1 0.1 1.68541 1 0 1.69665 1 0.1
1.69665 1 0 1.70788 1 0.1 1.70788 1 0 1.71912
1 0.1 1.71912 1 0 1.73035 1 0.1 1.73035 1
0 1.74159 1 0.1 1.74159 1 0 1.75282 1 0.1
1.75282 1 0 1.76406 1 0.1 1.76406 1 0 1.77529
1 0.1 1.77529 1 0 1.78653 1 0.1 1.78653 1
0 1.79776 1 0.1 1.79776 1 0 1.809 1 0.1
1.809 1 0 1.82023 1 0.1 1.82023 1 0 1.83147
1 0.1 1.83147 1 0 1.84271 1 0.1 1.84271 1
0 1.85394 1 0.1 1.85394 1 0 1.86518 1 0.1
1.86518 1 0 1.87641 1 0.1 1.87641 1 0 1.88765
1 0.1 1.88765 1 0 1.89888 1 0.1 1.89888 1
0 1.91012 1 0.1 1.91012 1 0 1.92135 1 0.1
1.92135 1 0 1.93259 1 0.1 1.93259 1 0 1.94382
1 0.1 1.94382 1 0 1.95506 1 0.1 1.95506 1
0 1.96629 1 0.1 1.96629 1 0 1.97753 1 0.1
1.97753 1 0 1.98876 1 0.1 1.98876 1 0 2
1 0.1 2 1 0 
POLYGONS 545 2725
4 0 1 2 3 4 3 2 4 5 4
5 4 6 7 4 7 6 8 9 4
9 8 10 11 4 11 10 12 13 4
13 12 14 15 4 15 14 16 17 4
17 16 18 19 4 19 18 20 21 4
21 20 22 23 4 23 22 24 25 4
25 24 26 27 4 27 26 28 29 4
29 28 30 31 4 31 30 32 33 4
33 32 34 35 4 35 34 36 37 4
37 36 38 39 4 39 38 40 41 4
41 40 42 43 4 43 42 44 45 4
45 44 46 47 4 47 46 48 49 4
49 48 50 51 4 51 50 52 53 4
53 52 54 55 4 55 54 56 57 4
57 56 58 59 4 59 58 60 61 4
61 60 62 63 4 63 62 64 65 4
65 64 66 67 4 67 66 68 69 4
69 68 70 71 4 71 70 72 73 4
73 72 74 75 4 75 74 76 77 4
77 76 78 79 4 79 78 80 81 4
81 80 82 83 4 83 82 84 85 4
85 84 86 87 4 87 86 88 89 4
89 88 90 91 4 91 90 92 93 4
93 92 94 95 4 95 94 96 97 4
97 96 98 99 4 99 98 100 101 4
101 100 102 103 4 103 102 104 105 4
105 104 106 107 4 107 106 108 109 4
109 108 110 111 4 111 110 112 113 4
113 112 114 115 4 115 114 116 117 4
117 116 118 119 4 119 118 120 121 4
121 120 122 123 4 123 122 124 125 4
125 124 126 127 4 127 126 128 129 4
129 128 130 131 4 131 130 132 133 4
133 132 134 135 4 135 134 136 137 4
137 136 138 139 4 139 138 140 141 4
141 140 142 143 4 143 142 144 145 4
145 144 146 147 4 147 146 148 149 4
149 148 150 151 4 151 150 152 153 4
153 152 154 155 4 155 154 156 157 4
157 156 158 159 4 159 158 160 161 4
161 160 162 163 4 163 162 164 165 4
165 164 166 167 4 167 166 168 169 4
169 168 170 171 4 171 170 172 173 4
173 172 174 175 4 175 174 176 177 4
177 176 178 179 4 179 178 180 181 4
181 180 182 183 4 183 182 184 185 4
185 184 186 187 4 187 186 188 189 4
189 188 190 191 4 191 190 192 193 4
193 192 194 195 4 195 194 196 197 4
197 196 198 199 4 199 198 200 201 4
201 200 202 203 4 203 202 204 205 4
205 204 206 207 4 207 206 208 209 4
209 208 210 211 4 211 210 212 213 4
213 212 214 215 4 215 214 216 217 4
217 216 218 219 4 219 218 220 221 4
221 220 222 223 4 223 222 224 225 4
225 224 226 227 4 227 226 228 229 4
229 228 230 231 4 231 230 232 233 4
233 232 234 235 4 235 234 236 237 4
237 236 238 239 4 239 238 240 241 4
241 240 242 243 4 243 242 244 245 4
245 244 246 247 4 247 246 248 249 4
249 248 250 251 4 251 250 252 253 4
253 252 254 255 4 255 254 256 257 4
257 256 258 259 4 259 258 260 261 4
261 260 262 263 4 263 262 264 265 4
265 264 266 267 4 267 266 268 269 4
269 268 270 271 4 271 270 272 273 4
273 272 274 275 4 275 274 276 277 4
277 276 278 279 4 279 278 280 281 4
281 280 282 283 4 283 282 284 285 4
285 284 286 287 4 287 286 288 289 4
289 288 290 291 4 291 290 292 293 4
293 292 294 295 4 295 294 296 297 4
297 296 298 299 4 299 298 300 301 4
301 300 302 303 4 303 302 304 305 4
305 304 306 307 4 307 306 308 309 4
309 308 310 311 4 311 310 312 313 4
313 312 314 315 4 315 314 316 317 4
317 316 318 319 4 319 318 320 321 4
321 320 322 323 4 323 322 324 325 4
325 324 326 327 4 327 326 328 329 4
329 328 330 331 4 331 330 332 333 4
333 332 334 335 4 335 334 336 337 4
337 336 338 339 4 339 338 340 341 4
341 340 342 343 4 343 342 344 345 4
345 344 346 347 4 347 346 348 349 4
349 348 350 351 4 351 350 352 353 4
353 352 354 355 4 355 354 356 357 4
357 356 358 359 4 359 358 360 361 4
361 360 362 363 4 363 362 364 365 4
365 364 366 367 4 367 366 368 369 4
369 368 370 371 4 371 370 372 373 4
373 372 374 375 4 375 374 376 377 4
377 376 378 379 4 379 378 380 381 4
381 380 382 383 4 383 382 384 385 4
385 384 386 387 4 387 386 388 389 4
389 388 390 391 4 391 390 392 393 4
393 392 394 395 4 395 394 396 397 4
397 396 398 399 4 399 398 400 401 4
401 400 402 403 4 403 402 404 405 4
405 404 406 407 4 407 406 408 409 4
409 408 410 411 4 411 410 412 413 4
413 412 414 415 4 415 414 416 417 4
417 416 418 419 4 419 418 420 421 4
421 420 422 423 4 423 422 424 425 4
425 424 426 427 4 427 426 428 429 4
429 428 430 431 4 431 430 432 433 4
433 432 434 435 4 435 434 436 437 4
437 436 438 439 4 439 438 440 441 4
441 440 442 443 4 443 442 444 445 4
445 444 446 447 4 447 446 448 449 4
449 448 450 451 4 451 450 452 453 4
453 452 454 455 4 455 454 456 457 4
457 456 458 459 4 459 458 460 461 4
461 460 462 463 4 463 462 464 465 4
465 464 466 467 4 467 466 468 469 4
469 468 470 471 4 471 470 472 473 4
473 472 474 475 4 475 474 476 477 4
477 476 478 479 4 479 478 480 481 4
481 480 482 483 4 483 482 484 485 4
485 484 486 487 4 487 486 488 489 4
489 488 490 491 4 491 490 492 493 4
493 492 494 495 4 495 494 496 497 4
497 496 498 499 4 499 498 500 501 4
501 500 502 503 4 503 502 504 505 4
505 504 506 507 4 507 506 508 509 4
509 508 510 511 4 511 510 512 513 4
513 512 514 515 4 515 514 516 517 4
517 516 518 519 4 519 518 520 521 4
521 520 522 523 4 523 522 524 525 4
525 524 526 527 4 527 526 528 529 4
529 528 530 531 4 531 530 532 533 4
533 532 534 535 4 535 534 536 537 4
537 536 538 539 4 539 538 540 541 4
541 540 542 543 4 543 542 544 545 4
545 544 546 547 4 547 546 548 549 4
549 548 550 551 4 551 550 552 553 4
553 552 554 555 4 555 554 556 557 4
557 556 558 559 4 559 558 560 561 4
561 560 562 563 4 563 562 564 565 4
565 564 566 567 4 567 566 568 569 4
569 568 570 571 4 571 570 572 573 4
573 572 574 575 4 575 574 576 577 4
577 576 578 579 4 579 578 580 581 4
581 580 582 583 4 583 582 584 585 4
585 584 586 587 4 587 586 588 589 4
589 588 590 591 4 591 590 592 593 4
593 592 594 595 4 595 594 596 597 4
597 596 598 599 4 599 598 600 601 4
601 600 602 603 4 603 602 604 605 4
605 604 606 607 4 607 606 608 609 4
609 608 610 611 4 611 610 612 613 4
613 612 614 615 4 615 614 616 617 4
617 616 618 619 4 619 618 620 621 4
621 620 622 623 4 623 622 624 625 4
625 624 626 627 4 627 626 628 629 4
629 628 630 631 4 631 630 632 633 4
633 632 634 635 4 635 634 636 637 4
637 636 638 639 4 639 638 640 641 4
641 640 642 643 4 643 642 644 645 4
645 644 646 647 4 647 646 648 649 4
649 648 650 651 4 651 650 652 653 4
653 652 654 655 4 655 654 656 657 4
657 656 658 659 4 659 658 660 661 4
661 660 662 663 4 663 662 664 665 4
665 664 666 667 4 667 666 668 669 4
669 668 670 671 4 671 670 672 673 4
673 672 674 675 4 675 674 676 677 4
677 676 678 679 4 679 678 680 681 4
681 680 682 683 4 683 682 684 685 4
685 684 686 687 4 687 686 688 689 4
689 688 690 691 4 691 690 692 693 4
693 692 694 695 4 695 694 696 697 4
697 696 698 699 4 699 698 700 701 4
701 700 702 703 4 703 702 704 705 4
705 704 706 707 4 707 706 708 709 4
709 708 710 711 4 711 710 712 713 4
713 712 714 715 4 715 714 716 717 4
717 716 718 719 4 719 718 720 721 4
721 720 722 723 4 723 722 724 725 4
725 724 726 727 4 727 726 728 729 4
729 728 730 731 4 731 730 732 733 4
733 732 734 735 4 735 734 736 737 4
737 736 738 739 4 739 738 740 741 4
741 740 742 743 4 743 742 744 745 4
745 744 746 747 4 747 746 748 749 4
749 748 750 751 4 751 750 752 753 4
753 752 754 755 4 755 754 756 757 4
757 756 758 759 4 759 758 760 761 4
761 760 762 763 4 763 762 764 765 4
765 764 766 767 4 767 766 768 769 4
769 768 770 771 4 771 770 772 773 4
773 772 774 775 4 775 774 776 777 4
777 776 778 779 4 779 778 780 781 4
781 780 782 783 4 783 782 784 785 4
785 784 786 787 4 787 786 788 789 4
789 788 790 791 4 791 790 792 793 4
793 792 794 795 4 795 794 796 797 4
797 796 798 799 4 799 798 800 801 4
801 800 802 803 4 803 802 804 805 4
805 804 806 807 4 807 806 808 809 4
809 808 810 811 4 811 810 812 813 4
813 812 814 815 4 815 814 816 817 4
817 816 818 819 4 819 818 820 821 4
821 820 822 823 4 823 822 824 825 4
825 824 826 827 4 827 826 828 829 4
829 828 830 831 4 831 830 832 833 4
833 832 834 835 4 835 834 836 837 4
837 836 838 839 4 839 838 840 841 4
841 840 842 843 4 843 842 844 845 4
845 844 846 847 4 847 846 848 849 4
849 848 850 851 4 851 850 852 853 4
853 852 854 855 4 855 854 856 857 4
857 856 858 859 4 859 858 860 861 4
861 860 862 863 4 863 862 864 865 4
865 864 866 867 4 867 866 868 869 4
869 868 870 871 4 871 870 872 873 4
873 872 874 875 4 875 874 876 877 4
877 876 878 879 4 879 878 880 881 4
881 880 882 883 4 883 882 884 885 4
885 884 886 887 4 887 886 888 889 4
889 888 890 891 4 891 890 892 893 4
893 892 894 895 4 895 894 896 897 4
897 896 898 899 4 899 898 900 901 4
901 900 902 903 4 903 902 904 905 4
905 904 906 907 4 907 906 908 909 4
909 908 910 911 4 911 910 912 913 4
913 912 914 915 4 915 914 916 917 4
917 916 918 919 4 919 918 920 921 4
921 920 922 923 4 923 922 924 925 4
925 924 926 927 4 927 926 928 929 4
929 928 930 931 4 931 930 932 933 4
933 932 934 935 4 935 934 936 937 4
937 936 938 939 4 939 938 940 941 4
941 940 942 943 4 943 942 944 945 4
945 944 946 947 4 947 946 948 949 4
949 948 950 951 4 951 950 952 953 4
953 952 954 955 4 955 954 956 957 4
957 956 958 959 4 959 958 960 961 4
961 960 962 963 4 963 962 964 965 4
965 964 966 967 4 967 966 968 969 4
969 968 970 971 4 971 970 972 973 4
973 972 974 975 4 975 974 976 977 4
977 976 978 979 4 979 978 980 981 4
981 980 982 983 4 983 982 984 985 4
985 984 986 987 4 987 986 988 989 4
989 988 990 991 4 991 990 992 993 4
993 992 994 995 4 995 994 996 997 4
997 996 998 999 4 999 998 1000 1001 4
1001 1000 1002 1003 4 1003 1002 1004 1005 4
1005 1004 1006 1007 4 1007 1006 1008 1009 4
1009 1008 1010 1011 4 1011 1010 1012 1013 4
1013 1012 1014 1015 4 1015 1014 1016 1017 4
1017 1016 1018 1019 4 1019 1018 1020 1021 4
1021 1020 1022 1023 4 1023 1022 1024 1025 4
1025 1024 1026 1027 4 1027 1026 1028 1029 4
1029 1028 1030 1031 4 1031 1030 1032 1033 4
1033 1032 1034 1035 4 1035 1034 1036 1037 4
1037 1036 1038 1039 4 1039 1038 1040 1041 4
1041 1040 1042 1043 4 1043 1042 1044 1045 4
1045 1044 1046 1047 4 1047 1046 1048 1049 4
1049 1048 1050 1051 4 1051 1050 1052 1053 4
1053 1052 1054 1055 4 1055 1054 1056 1057 4
1057 1056 1058 1059 4 1059 1058 1060 1061 4
1061 1060 1062 1063 4 1063 1062 1064 1065 4
1065 1064 1066 1067 4 1067 1066 1068 1069 4
1069 1068 1070 1071 4 1071 1070 1072 1073 4
1073 1072 1074 1075 4 1075 1074 1076 1077 4
1077 1076 1078 1079 4 1079 1078 1080 1081 4
1081 1080 1082 1083 4 1083 1082 1084 1085 4
1085 1084 1086 1087 4 1087 1086 1088 1089 4
1089 1088 1090 1091 
CELL_DATA 545
FIELD attributes 12
patchID 1 545 float
2 2 2 2 2 2 2 2 2 2 2
2 2 2 2 2 2 2 2 2 2
2 2 2 2 2 2 2 2 2 2
2 2 2 2 2 2 2 2 2 2
2 2 2 2 2 2 2 2 2 2
2 2 2 2 2 2 2 2 2 2
2 2 2 2 2 2 2 2 2 2
2 2 2 2 2 2 2 2 2 2
2 2 2 2 2 2 2 2 2 2
2 2 2 2 2 2 2 2 2 2
2 2 2 2 2 2 2 2 2 2
2 2 2 2 2 2 2 2 2 2
2 2 2 2 2 2 2 2 2 2
2 2 2 2 2 2 2 2 2 2
2 2 2 2 2 2 2 2 2 2
2 2 2 2 2 2 2 2 2 2
2 2 2 2 2 2 2 2 2 2
2 2 2 2 2 2 2 2 2 2
2 2 2 2 2 2 2 2 2 2
2 2 2 2 2 2 2 2 2 2
2 2 2 2 2 2 2 2 2 2
2 2 2 2 2 2 2 2 2 2
2 2 2 2 2 2 2 2 2 2
2 2 2 2 2 2 2 2 2 2
2 2 2 2 2 2 2 2 2 2
2 2 2 2 2 2 2 2 2 2
2 2 2 2 2 2 2 2 2 2
2 2 2 2 2 2 2 2 2 2
2 2 2 2 2 2 2 2 2 2
2 2 2 2 2 2 2 2 2 2
2 2 2 2 2 2 2 2 2 2
2 2 2 2 2 2 2 2 2 2
2 2 2 2 2 2 2 2 2 2
2 2 2 2 2 2 2 2 2 2
2 2 2 2 2 2 2 2 2 2
2 2 2 2 2 2 2 2 2 2
2 2 2 2 2 2 2 2 2 2
2 2 2 2 2 2 2 2 2 2
2 2 2 2 2 2 2 2 2 2
2 2 2 2 2 2 2 2 2 2
2 2 2 2 2 2 2 2 2 2
2 2 2 2 2 2 2 2 2 2
2 2 2 2 2 2 2 2 2 2
2 2 2 2 2 2 2 2 2 2
2 2 2 2 2 2 2 2 2 2
2 2 2 2 2 2 2 2 2 2
2 2 2 2 2 2 2 2 2 2
2 2 2 2 2 2 2 2 2 2
2 2 2 2 2 2 2 2 2 2
2 2 2 2 2 2 2 2 2 2
2 2 2 2 2 2 2 2 2 2
2 2 2 2 2 2 2 2 2 2
2 2 2 2 2 2 2 2 2 2
2 2 2 2 2 2 2 2 2 2
2 2 2 2 
Cy 1 545 float
1 1 1 1 1 1 1 1 1 1 1
1 1 1 1 1 1 1 1 1 1
1 1 1 1 1 1 1 1 1 1
1 1 1 1 1 1 1 1 1 1
1 1 1 1 1 1 1 1 1 1
1 1 1 1 1 1 1 1 1 1
1 1 1 1 1 1 1 1 1 1
1 1 1 1 1 1 1 1 1 1
1 1 1 1 1 1 1 1 1 1
1 1 1 1 1 1 1 1 1 1
1 1 1 1 1 1 1 1 1 1
1 1 1 1 1 1 1 1 1 1
1 1 1 1 1 1 1 1 1 1
1 1 1 1 1 1 1 1 1 1
1 1 1 1 1 1 1 1 1 1
1 1 1 1 1 1 1 1 1 1
1 1 1 1 1 1 1 1 1 1
1 1 1 1 1 1 1 1 1 1
1 1 1 1 1 1 1 1 1 1
1 1 1 1 1 1 1 1 1 1
1 1 1 1 1 1 1 1 1 1
1 1 1 1 1 1 1 1 1 1
1 1 1 1 1 1 1 1 1 1
1 1 1 1 1 1 1 1 1 1
1 1 1 1 1 1 1 1 1 1
1 1 1 1 1 1 1 1 1 1
1 1 1 1 1 1 1 1 1 1
1 1 1 1 1 1 1 1 1 1
1 1 1 1 1 1 1 1 1 1
1 1 1 1 1 1 1 1 1 1
1 1 1 1 1 1 1 1 1 1
1 1 1 1 1 1 1 1 1 1
1 1 1 1 1 1 1 1 1 1
1 1 1 1 1 1 1 1 1 1
1 1 1 1 1 1 1 1 1 1
1 1 1 1 1 1 1 1 1 1
1 1 1 1 1 1 1 1 1 1
1 1 1 1 1 1 1 1 1 1
1 1 1 1 1 1 1 1 1 1
1 1 1 1 1 1 1 1 1 1
1 1 1 1 1 1 1 1 1 1
1 1 1 1 1 1 1 1 1 1
1 1 1 1 1 1 1 1 1 1
1 1 1 1 1 1 1 1 1 1
1 1 1 1 1 1 1 1 1 1
1 1 1 1 1 1 1 1 1 1
1 1 1 1 1 1 1 1 1 1
1 1 1 1 1 1 1 1 1 1
1 1 1 1 1 1 1 1 1 1
1 1 1 1 1 1 1 1 1 1
1 1 1 1 1 1 1 1 1 1
1 1 1 1 1 1 1 1 1 1
1 1 1 1 1 1 1 1 1 1
1 1 1 1 1 1 1 1 1 1
1 1 1 1 
nut 1 545 float
1.23957e-07 1.23036e-07 1.22213e-07 1.21473e-07 1.20801e-07 1.20189e-07 1.19627e-07 1.1911e-07 1.18632e-07 1.18188e-07 1.17775e-07
1.17389e-07 1.17028e-07 1.16689e-07 1.16371e-07 1.16071e-07 1.15788e-07 1.1552e-07 1.15267e-07 1.15027e-07 1.14799e-07
1.14582e-07 1.14376e-07 1.14179e-07 1.13992e-07 1.13813e-07 1.13643e-07 1.1348e-07 1.13324e-07 1.13174e-07 1.13031e-07
1.12893e-07 1.12762e-07 1.12635e-07 1.12514e-07 1.12397e-07 1.12285e-07 1.12177e-07 1.12074e-07 1.11974e-07 1.11878e-07
1.11785e-07 1.11696e-07 1.11609e-07 1.11526e-07 1.11446e-07 1.11369e-07 1.11294e-07 1.11222e-07 1.11152e-07 1.11085e-07
1.1102e-07 1.10957e-07 1.10896e-07 1.10838e-07 1.10781e-07 1.10726e-07 1.10672e-07 1.10621e-07 1.10571e-07 1.10523e-07
1.10476e-07 1.10431e-07 1.10387e-07 1.10344e-07 1.10303e-07 1.10263e-07 1.10224e-07 1.10187e-07 1.1015e-07 1.10115e-07
1.10081e-07 1.10048e-07 1.10016e-07 1.09985e-07 1.09954e-07 1.09923e-07 1.09892e-07 1.09862e-07 1.09832e-07 1.09802e-07
1.09772e-07 1.09743e-07 1.09713e-07 1.09684e-07 1.09655e-07 1.09627e-07 1.09599e-07 1.0957e-07 1.09542e-07 1.09515e-07
1.09487e-07 1.0946e-07 1.09433e-07 1.09406e-07 1.0938e-07 1.09356e-07 1.09334e-07 1.09313e-07 1.09291e-07 1.0927e-07
1.09248e-07 1.09227e-07 1.09205e-07 1.09184e-07 1.09162e-07 1.09141e-07 1.09119e-07 1.09098e-07 1.09077e-07 1.09055e-07
1.09034e-07 1.09012e-07 1.08991e-07 1.08969e-07 1.08948e-07 1.08927e-07 1.08905e-07 1.08884e-07 1.08862e-07 1.08841e-07
1.08819e-07 1.08798e-07 1.08777e-07 1.08755e-07 1.08734e-07 1.08712e-07 1.08691e-07 1.0867e-07 1.08648e-07 1.08627e-07
1.08605e-07 1.08584e-07 1.08562e-07 1.08541e-07 1.0852e-07 1.08498e-07 1.08477e-07 1.08456e-07 1.08434e-07 1.08413e-07
1.08391e-07 1.0837e-07 1.08349e-07 1.08327e-07 1.08306e-07 1.08285e-07 1.08263e-07 1.08242e-07 1.0822e-07 1.08199e-07
1.08178e-07 1.08157e-07 1.08135e-07 1.08114e-07 1.08092e-07 1.08071e-07 1.0805e-07 1.08028e-07 1.08007e-07 1.07986e-07
1.07964e-07 1.07943e-07 1.07922e-07 1.07901e-07 1.07879e-07 1.07858e-07 1.07836e-07 1.07815e-07 1.07794e-07 1.07773e-07
1.07751e-07 1.0773e-07 1.07709e-07 1.07687e-07 1.07666e-07 1.07645e-07 1.07623e-07 1.07602e-07 1.07581e-07 1.0756e-07
1.07538e-07 1.07517e-07 1.07496e-07 1.07475e-07 1.07453e-07 1.07432e-07 1.07411e-07 1.0739e-07 1.07368e-07 1.07347e-07
1.07326e-07 1.07305e-07 1.07283e-07 1.07262e-07 1.07241e-07 1.0722e-07 1.07198e-07 1.07177e-07 1.07156e-07 1.07135e-07
1.07113e-07 1.07092e-07 1.07071e-07 1.0705e-07 1.07028e-07 1.07007e-07 1.06986e-07 1.06965e-07 1.06943e-07 1.06922e-07
1.06901e-07 1.0688e-07 1.06859e-07 1.06838e-07 1.06816e-07 1.06795e-07 1.06774e-07 1.06753e-07 1.06731e-07 1.06711e-07
1.06689e-07 1.06668e-07 1.06647e-07 1.06626e-07 1.06604e-07 1.06583e-07 1.06562e-07 1.06541e-07 1.0652e-07 1.06499e-07
1.06477e-07 1.06457e-07 1.06435e-07 1.06414e-07 1.06393e-07 1.06372e-07 1.06351e-07 1.0633e-07 1.06308e-07 1.06287e-07
1.06266e-07 1.06245e-07 1.06224e-07 1.06203e-07 1.06182e-07 1.06161e-07 1.06139e-07 1.06119e-07 1.06097e-07 1.06076e-07
1.06055e-07 1.06034e-07 1.06013e-07 1.05992e-07 1.05971e-07 1.0595e-07 1.05928e-07 1.05908e-07 1.05886e-07 1.05866e-07
1.05844e-07 1.05823e-07 1.05802e-07 1.05781e-07 1.0576e-07 1.05739e-07 1.05718e-07 1.05697e-07 1.05677e-07 1.05658e-07
1.05639e-07 1.0562e-07 1.05601e-07 1.05582e-07 1.05562e-07 1.05542e-07 1.05522e-07 1.05502e-07 1.05482e-07 1.05462e-07
1.05441e-07 1.0542e-07 1.05399e-07 1.05378e-07 1.05356e-07 1.05335e-07 1.05313e-07 1.05292e-07 1.05269e-07 1.05247e-07
1.05225e-07 1.05203e-07 1.05179e-07 1.05157e-07 1.05133e-07 1.0511e-07 1.05086e-07 1.05063e-07 1.05039e-07 1.05015e-07
1.0499e-07 1.04967e-07 1.04941e-07 1.04917e-07 1.04891e-07 1.04867e-07 1.04841e-07 1.04816e-07 1.04789e-07 1.04764e-07
1.04737e-07 1.04711e-07 1.04684e-07 1.04658e-07 1.0463e-07 1.04603e-07 1.04575e-07 1.04548e-07 1.0452e-07 1.04492e-07
1.04463e-07 1.04436e-07 1.04406e-07 1.04378e-07 1.04348e-07 1.04319e-07 1.04289e-07 1.0426e-07 1.04229e-07 1.042e-07
1.04169e-07 1.04139e-07 1.04107e-07 1.04077e-07 1.04045e-07 1.04014e-07 1.03981e-07 1.0395e-07 1.03917e-07 1.03886e-07
1.03852e-07 1.0382e-07 1.03786e-07 1.03754e-07 1.03719e-07 1.03686e-07 1.03651e-07 1.03618e-07 1.03583e-07 1.03549e-07
1.03513e-07 1.03479e-07 1.03443e-07 1.03408e-07 1.03371e-07 1.03336e-07 1.03299e-07 1.03263e-07 1.03225e-07 1.0319e-07
1.03151e-07 1.03115e-07 1.03076e-07 1.03039e-07 1.03e-07 1.02963e-07 1.02922e-07 1.02885e-07 1.02844e-07 1.02807e-07
1.02765e-07 1.02727e-07 1.02685e-07 1.02647e-07 1.02605e-07 1.02565e-07 1.02523e-07 1.02483e-07 1.0244e-07 1.024e-07
1.02356e-07 1.02316e-07 1.02271e-07 1.02231e-07 1.02186e-07 1.02145e-07 1.02099e-07 1.02057e-07 1.02011e-07 1.01969e-07
1.01923e-07 1.01881e-07 1.01833e-07 1.01791e-07 1.01743e-07 1.017e-07 1.01651e-07 1.01608e-07 1.01559e-07 1.01515e-07
1.01466e-07 1.01421e-07 1.01371e-07 1.01327e-07 1.01276e-07 1.01231e-07 1.0118e-07 1.01135e-07 1.01083e-07 1.01037e-07
1.00985e-07 1.00939e-07 1.00886e-07 1.0084e-07 1.00786e-07 1.00739e-07 1.00685e-07 1.00638e-07 1.00583e-07 1.00536e-07
1.00481e-07 1.00433e-07 1.00377e-07 1.00329e-07 1.00273e-07 1.00225e-07 1.00167e-07 1.00119e-07 1.00061e-07 1.00012e-07
9.99537e-08 9.99049e-08 9.98456e-08 9.97966e-08 9.97367e-08 9.96874e-08 9.96268e-08 9.95774e-08 9.95161e-08 9.94665e-08
9.94045e-08 9.93547e-08 9.92921e-08 9.92421e-08 9.91788e-08 9.91286e-08 9.90647e-08 9.90144e-08 9.89497e-08 9.88936e-08
9.88141e-08 9.87535e-08 9.86751e-08 9.86159e-08 9.85385e-08 9.84806e-08 9.84041e-08 9.83476e-08 9.8272e-08 9.82168e-08
9.81421e-08 9.80881e-08 9.80142e-08 9.79614e-08 9.78884e-08 9.78368e-08 9.77646e-08 9.7714e-08 9.76426e-08 9.75932e-08
9.75225e-08 9.74741e-08 9.74042e-08 9.73569e-08 9.72876e-08 9.72413e-08 9.71727e-08 9.71274e-08 9.70595e-08 9.70151e-08
9.69478e-08 9.69044e-08 9.68377e-08 9.67952e-08 9.67292e-08 9.66875e-08 9.66221e-08 9.65813e-08 9.65164e-08 9.64764e-08
9.64121e-08 9.63729e-08 9.63092e-08 9.62708e-08 9.62075e-08 9.61699e-08 9.61072e-08 9.60703e-08 9.60081e-08 9.5972e-08
9.59103e-08 9.58748e-08 9.58136e-08 9.57789e-08 9.57181e-08 9.5684e-08 9.56238e-08 9.55903e-08 9.55305e-08 9.54976e-08
9.54384e-08 9.54061e-08 9.53473e-08 9.53155e-08 9.52572e-08 9.5226e-08 9.51681e-08 9.51374e-08 9.508e-08 9.50499e-08
9.49929e-08 9.49632e-08 9.49067e-08 9.48775e-08 9.48214e-08 9.47927e-08 9.4737e-08 9.47088e-08 9.46535e-08 9.46257e-08
9.45709e-08 9.45434e-08 9.44891e-08 9.4462e-08 9.44081e-08 9.43814e-08 9.43279e-08 9.43015e-08 9.42486e-08 9.4222e-08
9.41717e-08 9.41372e-08 9.41168e-08 9.3988e-08 
Cz 1 545 float
0.05 0.05 0.05 0.05 0.05 0.05 0.05 0.05 0.05 0.05 0.05
0.05 0.05 0.05 0.05 0.05 0.05 0.05 0.05 0.05 0.05
0.05 0.05 0.05 0.05 0.05 0.05 0.05 0.05 0.05 0.05
0.05 0.05 0.05 0.05 0.05 0.05 0.05 0.05 0.05 0.05
0.05 0.05 0.05 0.05 0.05 0.05 0.05 0.05 0.05 0.05
0.05 0.05 0.05 0.05 0.05 0.05 0.05 0.05 0.05 0.05
0.05 0.05 0.05 0.05 0.05 0.05 0.05 0.05 0.05 0.05
0.05 0.05 0.05 0.05 0.05 0.05 0.05 0.05 0.05 0.05
0.05 0.05 0.05 0.05 0.05 0.05 0.05 0.05 0.05 0.05
0.05 0.05 0.05 0.05 0.05 0.05 0.05 0.05 0.05 0.05
0.05 0.05 0.05 0.05 0.05 0.05 0.05 0.05 0.05 0.05
0.05 0.05 0.05 0.05 0.05 0.05 0.05 0.05 0.05 0.05
0.05 0.05 0.05 0.05 0.05 0.05 0.05 0.05 0.05 0.05
0.05 0.05 0.05 0.05 0.05 0.05 0.05 0.05 0.05 0.05
0.05 0.05 0.05 0.05 0.05 0.05 0.05 0.05 0.05 0.05
0.05 0.05 0.05 0.05 0.05 0.05 0.05 0.05 0.05 0.05
0.05 0.05 0.05 0.05 0.05 0.05 0.05 0.05 0.05 0.05
0.05 0.05 0.05 0.05 0.05 0.05 0.05 0.05 0.05 0.05
0.05 0.05 0.05 0.05 0.05 0.05 0.05 0.05 0.05 0.05
0.05 0.05 0.05 0.05 0.05 0.05 0.05 0.05 0.05 0.05
0.05 0.05 0.05 0.05 0.05 0.05 0.05 0.05 0.05 0.05
0.05 0.05 0.05 0.05 0.05 0.05 0.05 0.05 0.05 0.05
0.05 0.05 0.05 0.05 0.05 0.05 0.05 0.05 0.05 0.05
0.05 0.05 0.05 0.05 0.05 0.05 0.05 0.05 0.05 0.05
0.05 0.05 0.05 0.05 0.05 0.05 0.05 0.05 0.05 0.05
0.05 0.05 0.05 0.05 0.05 0.05 0.05 0.05 0.05 0.05
0.05 0.05 0.05 0.05 0.05 0.05 0.05 0.05 0.05 0.05
0.05 0.05 0.05 0.05 0.05 0.05 0.05 0.05 0.05 0.05
0.05 0.05 0.05 0.05 0.05 0.05 0.05 0.05 0.05 0.05
0.05 0.05 0.05 0.05 0.05 0.05 0.05 0.05 0.05 0.05
0.05 0.05 0.05 0.05 0.05 0.05 0.05 0.05 0.05 0.05
0.05 0.05 0.05 0.05 0.05 0.05 0.05 0.05 0.05 0.05
0.05 0.05 0.05 0.05 0.05 0.05 0.05 0.05 0.05 0.05
0.05 0.05 0.05 0.05 0.05 0.05 0.05 0.05 0.05 0.05
0.05 0.05 0.05 0.05 0.05 0.05 0.05 0.05 0.05 0.05
0.05 0.05 0.05 0.05 0.05 0.05 0.05 0.05 0.05 0.05
0.05 0.05 0.05 0.05 0.05 0.05 0.05 0.05 0.05 0.05
0.05 0.05 0.05 0.05 0.05 0.05 0.05 0.05 0.05 0.05
0.05 0.05 0.05 0.05 0.05 0.05 0.05 0.05 0.05 0.05
0.05 0.05 0.05 0.05 0.05 0.05 0.05 0.05 0.05 0.05
0.05 0.05 0.05 0.05 0.05 0.05 0.05 0.05 0.05 0.05
0.05 0.05 0.05 0.05 0.05 0.05 0.05 0.05 0.05 0.05
0.05 0.05 0.05 0.05 0.05 0.05 0.05 0.05 0.05 0.05
0.05 0.05 0.05 0.05 0.05 0.05 0.05 0.05 0.05 0.05
0.05 0.05 0.05 0.05 0.05 0.05 0.05 0.05 0.05 0.05
0.05 0.05 0.05 0.05 0.05 0.05 0.05 0.05 0.05 0.05
0.05 0.05 0.05 0.05 0.05 0.05 0.05 0.05 0.05 0.05
0.05 0.05 0.05 0.05 0.05 0.05 0.05 0.05 0.05 0.05
0.05 0.05 0.05 0.05 0.05 0.05 0.05 0.05 0.05 0.05
0.05 0.05 0.05 0.05 0.05 0.05 0.05 0.05 0.05 0.05
0.05 0.05 0.05 0.05 0.05 0.05 0.05 0.05 0.05 0.05
0.05 0.05 0.05 0.05 0.05 0.05 0.05 0.05 0.05 0.05
0.05 0.05 0.05 0.05 0.05 0.05 0.05 0.05 0.05 0.05
0.05 0.05 0.05 0.05 0.05 0.05 0.05 0.05 0.05 0.05
0.05 0.05 0.05 0.05 
p 1 545 float
15.5925 15.5916 15.5895 15.5863 15.5823 15.5774 15.5718 15.5656 15.5587 15.5513 15.5434
15.535 15.5263 15.5172 15.5077 15.498 15.4881 15.4779 15.4676 15.4571 15.4465
15.4358 15.425 15.4142 15.4033 15.3924 15.3816 15.3707 15.3599 15.3491 15.3384
15.3278 15.3172 15.3067 15.2963 15.286 15.2759 15.2658 15.2559 15.246 15.2364
15.2268 15.2174 15.2081 15.199 15.19 15.1811 15.1724 15.1639 15.1554 15.1472
15.1391 15.1311 15.1233 15.1156 15.1081 15.1007 15.0935 15.0864 15.0794 15.0726
15.0659 15.0594 15.053 15.0468 15.0406 15.0346 15.0288 15.023 15.0174 15.0119
15.0065 15.0014 14.9963 14.9913 14.9862 14.9812 14.9761 14.9711 14.9661 14.9611
14.956 14.951 14.946 14.941 14.936 14.931 14.926 14.921 14.9161 14.9111
14.9061 14.9012 14.8962 14.8913 14.8863 14.8819 14.8778 14.8738 14.8697 14.8656
14.8615 14.8574 14.8533 14.8491 14.8449 14.8407 14.8365 14.8322 14.828 14.8237
14.8194 14.815 14.8107 14.8063 14.8019 14.7975 14.7931 14.7886 14.7841 14.7796
14.7751 14.7706 14.766 14.7614 14.7568 14.7522 14.7475 14.7428 14.7381 14.7334
14.7287 14.7239 14.7191 14.7143 14.7094 14.7046 14.6997 14.6948 14.6899 14.6849
14.6799 14.6749 14.6699 14.6648 14.6598 14.6547 14.6495 14.6444 14.6392 14.634
14.6288 14.6236 14.6183 14.613 14.6077 14.6023 14.597 14.5916 14.5862 14.5807
14.5752 14.5697 14.5642 14.5587 14.5531 14.5475 14.5419 14.5362 14.5305 14.5248
14.5191 14.5133 14.5076 14.5017 14.4959 14.49 14.4841 14.4782 14.4723 14.4663
14.4603 14.4543 14.4482 14.4421 14.436 14.4299 14.4237 14.4175 14.4113 14.405
14.3987 14.3924 14.3861 14.3797 14.3733 14.3669 14.3604 14.3539 14.3474 14.3409
14.3343 14.3277 14.321 14.3144 14.3077 14.3009 14.2942 14.2874 14.2806 14.2737
14.2669 14.26 14.253 14.246 14.239 14.232 14.2249 14.2178 14.2107 14.2036
14.1964 14.1891 14.1819 14.1746 14.1673 14.1599 14.1525 14.1451 14.1377 14.1302
14.1227 14.1151 14.1075 14.0999 14.0923 14.0846 14.0769 14.0691 14.0614 14.0535
14.0457 14.0378 14.0299 14.0219 14.0139 14.0059 13.9979 13.9898 13.9816 13.9735
13.9653 13.9571 13.9488 13.9405 13.9322 13.9238 13.9154 13.9069 13.8984 13.8899
13.8814 13.8728 13.8642 13.8555 13.8468 13.8381 13.8293 13.8205 13.8121 13.8042
13.7962 13.7881 13.7798 13.7715 13.7631 13.7545 13.7459 13.7371 13.7282 13.7193
13.7102 13.701 13.6916 13.6822 13.6726 13.6629 13.6531 13.6432 13.6332 13.623
13.6126 13.6022 13.5916 13.5809 13.5701 13.5591 13.5479 13.5367 13.5252 13.5137
13.502 13.4901 13.4781 13.4659 13.4536 13.4411 13.4285 13.4157 13.4027 13.3895
13.3762 13.3628 13.3491 13.3353 13.3213 13.3071 13.2927 13.2781 13.2634 13.2484
13.2333 13.218 13.2024 13.1867 13.1708 13.1546 13.1383 13.1217 13.1049 13.0879
13.0707 13.0533 13.0356 13.0177 12.9996 12.9812 12.9626 12.9437 12.9246 12.9053
12.8857 12.8658 12.8457 12.8253 12.8047 12.7838 12.7626 12.7412 12.7194 12.6974
12.6751 12.6525 12.6296 12.6064 12.5829 12.5592 12.5351 12.5106 12.4859 12.4609
12.4355 12.4098 12.3837 12.3574 12.3306 12.3036 12.2762 12.2484 12.2203 12.1918
12.1629 12.1337 12.1041 12.0741 12.0438 12.013 11.9819 11.9503 11.9184 11.886
11.8533 11.8201 11.7865 11.7525 11.718 11.6831 11.6478 11.612 11.5757 11.539
11.5019 11.4643 11.4262 11.3876 11.3486 11.309 11.269 11.2285 11.1875 11.1459
11.1039 11.0613 11.0183 10.9746 10.9305 10.8858 10.8406 10.7948 10.7485 10.7016
10.6542 10.6061 10.5575 10.5084 10.4586 10.4082 10.3573 10.3057 10.2536 10.2008
10.1474 10.0933 10.0387 9.9834 9.92746 9.87088 9.81365 9.75576 9.6972 9.63798
9.57808 9.5175 9.45623 9.39428 9.33162 9.26827 9.2042 9.13942 9.07393 9.0077
8.94075 8.87306 8.80463 8.73545 8.66552 8.59483 8.52337 8.45115 8.37814 8.29607
8.20531 8.11459 8.02389 7.93323 7.84261 7.75202 7.66148 7.57099 7.48055 7.39016
7.29982 7.20954 7.11932 7.02917 6.93908 6.84905 6.75909 6.6692 6.57938 6.48963
6.39995 6.31035 6.22082 6.13137 6.04199 5.95269 5.86347 5.77432 5.68525 5.59627
5.50736 5.41852 5.32977 5.2411 5.1525 5.06399 4.97555 4.88719 4.7989 4.7107
4.62257 4.53452 4.44654 4.35864 4.27081 4.18305 4.09537 4.00775 3.92021 3.83274
3.74534 3.658 3.57073 3.48353 3.39639 3.30932 3.2223 3.13535 3.04845 2.96162
2.87484 2.78811 2.70144 2.61482 2.52825 2.44173 2.35526 2.26884 2.18246 2.09612
2.00982 1.92357 1.83735 1.75117 1.66502 1.5789 1.49282 1.40677 1.32074 1.23474
1.14876 1.0628 0.97687 0.890953 0.805053 0.719169 0.633294 0.547441 0.461562 0.375812
0.289685 0.204988 0.116538 0.0466458 
k 1 545 float
0.00102386 0.00093215 0.000856781 0.000793812 0.000740467 0.000694734 0.000655122 0.000620502 0.000590007 0.000562954 0.000538807
0.00051713 0.000497575 0.000479851 0.000463722 0.000448986 0.000435477 0.000423053 0.000411594 0.000400995 0.000391167
0.000382032 0.000373523 0.00036558 0.000358153 0.000351194 0.000344664 0.000338526 0.000332749 0.000327302 0.000322162
0.000317303 0.000312706 0.000308351 0.000304222 0.000300302 0.000296577 0.000293035 0.000289664 0.000286452 0.00028339
0.000280468 0.000277679 0.000275014 0.000272465 0.000270027 0.000267694 0.000265459 0.000263317 0.000261262 0.000259292
0.000257401 0.000255585 0.00025384 0.000252163 0.00025055 0.000248999 0.000247507 0.00024607 0.000244686 0.000243354
0.000242069 0.000240831 0.000239637 0.000238486 0.000237375 0.000236303 0.000235268 0.000234269 0.000233303 0.000232371
0.00023147 0.00023061 0.000229782 0.000228962 0.000228152 0.000227351 0.000226559 0.000225777 0.000225002 0.000224237
0.000223479 0.00022273 0.00022199 0.000221257 0.000220532 0.000219815 0.000219106 0.000218405 0.00021771 0.000217024
0.000216344 0.000215672 0.000215007 0.000214348 0.000213697 0.000213111 0.000212589 0.000212068 0.000211548 0.000211029
0.000210511 0.000209995 0.00020948 0.000208966 0.000208453 0.000207942 0.000207431 0.000206922 0.000206414 0.000205907
0.000205402 0.000204898 0.000204394 0.000203893 0.000203392 0.000202892 0.000202394 0.000201897 0.000201401 0.000200906
0.000200412 0.000199919 0.000199428 0.000198938 0.000198449 0.000197961 0.000197474 0.000196989 0.000196504 0.000196021
0.000195539 0.000195058 0.000194578 0.000194099 0.000193622 0.000193145 0.00019267 0.000192196 0.000191723 0.000191251
0.00019078 0.00019031 0.000189841 0.000189374 0.000188908 0.000188442 0.000187978 0.000187515 0.000187053 0.000186592
0.000186133 0.000185674 0.000185216 0.00018476 0.000184304 0.00018385 0.000183397 0.000182945 0.000182494 0.000182044
0.000181595 0.000181147 0.0001807 0.000180254 0.00017981 0.000179366 0.000178923 0.000178482 0.000178042 0.000177602
0.000177164 0.000176726 0.00017629 0.000175855 0.000175421 0.000174988 0.000174556 0.000174125 0.000173694 0.000173265
0.000172837 0.00017241 0.000171984 0.00017156 0.000171136 0.000170713 0.000170291 0.00016987 0.00016945 0.000169031
0.000168613 0.000168196 0.000167781 0.000167366 0.000166952 0.000166539 0.000166127 0.000165716 0.000165306 0.000164897
0.000164489 0.000164082 0.000163676 0.000163271 0.000162867 0.000162464 0.000162062 0.000161661 0.000161261 0.000160861
0.000160463 0.000160066 0.000159669 0.000159274 0.000158879 0.000158486 0.000158093 0.000157702 0.000157311 0.000156921
0.000156532 0.000156145 0.000155758 0.000155372 0.000154987 0.000154602 0.000154219 0.000153837 0.000153455 0.000153075
0.000152695 0.000152317 0.000151939 0.000151562 0.000151186 0.000150811 0.000150437 0.000150064 0.000149692 0.00014932
0.00014895 0.00014858 0.000148211 0.000147843 0.000147477 0.00014711 0.000146745 0.000146381 0.000146018 0.000145655
0.000145293 0.000144933 0.000144573 0.000144214 0.000143855 0.000143498 0.000143142 0.000142786 0.000142431 0.000142077
0.000141724 0.000141372 0.000141021 0.00014067 0.000140321 0.000139972 0.000139624 0.000139277 0.00013895 0.000138642
0.000138331 0.000138019 0.000137705 0.000137388 0.00013707 0.000136749 0.000136427 0.000136102 0.000135776 0.000135447
0.000135117 0.000134784 0.000134449 0.000134113 0.000133774 0.000133433 0.000133091 0.000132746 0.000132399 0.00013205
0.0001317 0.000131347 0.000130992 0.000130636 0.000130277 0.000129916 0.000129554 0.000129189 0.000128822 0.000128454
0.000128083 0.000127711 0.000127337 0.00012696 0.000126582 0.000126202 0.00012582 0.000125436 0.00012505 0.000124662
0.000124273 0.000123881 0.000123488 0.000123092 0.000122696 0.000122297 0.000121896 0.000121494 0.000121089 0.000120683
0.000120276 0.000119866 0.000119455 0.000119042 0.000118627 0.000118211 0.000117793 0.000117373 0.000116952 0.000116528
0.000116104 0.000115677 0.00011525 0.00011482 0.00011439 0.000113957 0.000113523 0.000113087 0.00011265 0.000112212
0.000111772 0.00011133 0.000110888 0.000110443 0.000109998 0.000109551 0.000109103 0.000108653 0.000108203 0.000107751
0.000107298 0.000106843 0.000106388 0.00010593 0.000105473 0.000105013 0.000104553 0.000104092 0.00010363 0.000103166
0.000102702 0.000102236 0.00010177 0.000101302 0.000100835 0.000100365 9.98958e-05 9.94242e-05 9.89535e-05 9.84803e-05
9.80081e-05 9.75334e-05 9.70598e-05 9.65836e-05 9.61088e-05 9.56313e-05 9.51553e-05 9.46767e-05 9.41996e-05 9.37199e-05
9.32419e-05 9.27612e-05 9.22825e-05 9.18008e-05 9.13214e-05 9.0839e-05 9.0359e-05 8.9876e-05 8.93956e-05 8.8912e-05
8.84312e-05 8.79472e-05 8.74662e-05 8.69819e-05 8.65009e-05 8.60163e-05 8.55353e-05 8.50507e-05 8.45699e-05 8.40852e-05
8.36047e-05 8.31202e-05 8.26401e-05 8.21558e-05 8.16762e-05 8.11923e-05 8.07134e-05 8.02299e-05 7.97518e-05 7.92689e-05
7.87917e-05 7.83094e-05 7.78333e-05 7.73518e-05 7.68768e-05 7.63962e-05 7.59225e-05 7.54429e-05 7.49706e-05 7.44921e-05
7.40214e-05 7.3544e-05 7.30749e-05 7.25988e-05 7.21315e-05 7.16568e-05 7.11914e-05 7.07182e-05 7.02548e-05 6.97831e-05
6.93219e-05 6.88518e-05 6.83929e-05 6.79246e-05 6.74681e-05 6.70015e-05 6.65475e-05 6.60829e-05 6.56315e-05 6.51688e-05
6.47202e-05 6.42595e-05 6.38137e-05 6.33552e-05 6.29124e-05 6.2456e-05 6.20163e-05 6.15621e-05 6.11257e-05 6.0623e-05
6.00976e-05 5.95595e-05 5.90525e-05 5.85313e-05 5.80417e-05 5.75367e-05 5.70637e-05 5.6574e-05 5.6117e-05 5.56417e-05
5.51999e-05 5.47385e-05 5.43113e-05 5.38631e-05 5.34498e-05 5.30141e-05 5.26142e-05 5.21905e-05 5.18034e-05 5.13911e-05
5.10163e-05 5.06149e-05 5.02519e-05 4.98609e-05 4.95092e-05 4.91281e-05 4.87874e-05 4.84158e-05 4.80855e-05 4.7723e-05
4.74029e-05 4.7049e-05 4.67386e-05 4.6393e-05 4.6092e-05 4.57544e-05 4.54625e-05 4.51324e-05 4.48492e-05 4.45265e-05
4.42517e-05 4.39359e-05 4.36694e-05 4.33602e-05 4.31016e-05 4.27989e-05 4.25479e-05 4.22513e-05 4.20077e-05 4.17169e-05
4.14806e-05 4.11954e-05 4.0966e-05 4.06863e-05 4.04636e-05 4.01891e-05 3.9973e-05 3.97034e-05 3.94937e-05 3.92289e-05
3.90253e-05 3.87651e-05 3.85676e-05 3.83117e-05 3.812e-05 3.78683e-05 3.76824e-05 3.74347e-05 3.72543e-05 3.70105e-05
3.68356e-05 3.65955e-05 3.64258e-05 3.61892e-05 3.60247e-05 3.57915e-05 3.5632e-05 3.54021e-05 3.52475e-05 3.50208e-05
3.48709e-05 3.46472e-05 3.45021e-05 3.42812e-05 3.41406e-05 3.39225e-05 3.37864e-05 3.3571e-05 3.34393e-05 3.3226e-05
3.31001e-05 3.28831e-05 3.27885e-05 3.24537e-05 
omega 1 545 float
8259.77 7576.24 7010.53 6534.9 6129.63 5780.36 5476.37 5209.5 4973.43 4763.22 4574.89
4405.27 4251.76 4112.21 3984.86 3868.2 3760.99 3662.16 3570.79 3486.1 3407.41
3334.13 3265.75 3201.81 3141.91 3085.7 3032.87 2983.15 2936.27 2892.03 2850.21
2810.64 2773.15 2737.6 2703.85 2671.79 2641.28 2612.25 2584.58 2558.21 2533.04
2509 2486.03 2464.08 2443.06 2422.94 2403.67 2385.2 2367.49 2350.49 2334.18
2318.51 2303.45 2288.98 2275.06 2261.68 2248.79 2236.39 2224.44 2212.93 2201.84
2191.15 2180.84 2170.89 2161.29 2152.03 2143.08 2134.45 2126.1 2118.04 2110.25
2102.73 2095.54 2088.61 2081.76 2074.98 2068.28 2061.65 2055.09 2048.61 2042.19
2035.85 2029.57 2023.36 2017.22 2011.14 2005.12 1999.17 1993.28 1987.45 1981.68
1975.97 1970.32 1964.73 1959.2 1953.72 1948.79 1944.4 1940.01 1935.63 1931.27
1926.91 1922.56 1918.22 1913.89 1909.57 1905.26 1900.96 1896.66 1892.38 1888.1
1883.84 1879.58 1875.34 1871.1 1866.87 1862.65 1858.44 1854.24 1850.05 1845.87
1841.69 1837.53 1833.37 1829.23 1825.09 1820.96 1816.84 1812.73 1808.63 1804.54
1800.45 1796.38 1792.31 1788.25 1784.21 1780.17 1776.14 1772.11 1768.1 1764.1
1760.1 1756.11 1752.14 1748.16 1744.2 1740.25 1736.31 1732.37 1728.45 1724.53
1720.62 1716.72 1712.82 1708.94 1705.06 1701.2 1697.34 1693.49 1689.65 1685.81
1681.99 1678.17 1674.36 1670.56 1666.77 1662.99 1659.21 1655.44 1651.69 1647.93
1644.19 1640.46 1636.73 1633.01 1629.31 1625.6 1621.91 1618.22 1614.55 1610.88
1607.22 1603.56 1599.92 1596.28 1592.65 1589.03 1585.42 1581.81 1578.22 1574.62
1571.05 1567.47 1563.91 1560.34 1556.8 1553.25 1549.72 1546.19 1542.67 1539.16
1535.66 1532.16 1528.67 1525.19 1521.72 1518.25 1514.8 1511.35 1507.91 1504.47
1501.04 1497.62 1494.21 1490.8 1487.41 1484.02 1480.64 1477.26 1473.9 1470.53
1467.18 1463.84 1460.5 1457.17 1453.85 1450.53 1447.22 1443.92 1440.63 1437.34
1434.06 1430.79 1427.53 1424.27 1421.02 1417.77 1414.54 1411.31 1408.09 1404.87
1401.67 1398.46 1395.27 1392.08 1388.91 1385.73 1382.57 1379.41 1376.26 1373.11
1369.98 1366.85 1363.73 1360.61 1357.5 1354.4 1351.3 1348.21 1345.13 1342.06
1338.99 1335.93 1332.88 1329.82 1326.79 1323.75 1320.72 1317.7 1314.86 1312.17
1309.47 1306.75 1304.01 1301.25 1298.48 1295.68 1292.87 1290.04 1287.2 1284.33
1281.45 1278.54 1275.62 1272.68 1269.73 1266.75 1263.76 1260.74 1257.72 1254.67
1251.61 1248.52 1245.42 1242.29 1239.16 1236 1232.83 1229.63 1226.43 1223.19
1219.95 1216.68 1213.41 1210.1 1206.79 1203.45 1200.1 1196.73 1193.35 1189.93
1186.52 1183.07 1179.63 1176.14 1172.66 1169.15 1165.63 1162.08 1158.53 1154.95
1151.37 1147.75 1144.14 1140.49 1136.84 1133.16 1129.48 1125.77 1122.06 1118.32
1114.58 1110.8 1107.03 1103.22 1099.43 1095.59 1091.76 1087.9 1084.04 1080.15
1076.26 1072.34 1068.43 1064.48 1060.54 1056.56 1052.6 1048.59 1044.61 1040.57
1036.56 1032.51 1028.47 1024.39 1020.33 1016.23 1012.15 1008.02 1003.92 999.769
995.647 991.476 987.334 983.143 978.982 974.771 970.592 966.362 962.167 957.918
953.707 949.441 945.214 940.932 936.691 932.393 928.139 923.827 919.561 915.234
910.957 906.617 902.33 897.978 893.682 889.319 885.014 880.641 876.329 871.947
867.629 863.239 858.916 854.518 850.192 845.787 841.458 837.047 832.717 828.302
823.97 819.552 815.221 810.8 806.47 802.047 797.721 793.297 788.974 784.55
780.233 775.81 771.498 767.077 762.773 758.355 754.059 749.644 745.358 740.948
736.672 732.267 728.004 723.605 719.354 714.962 710.726 706.341 702.121 697.745
693.54 689.174 684.987 680.63 676.462 672.116 667.968 663.633 659.506 655.183
651.078 646.768 642.687 638.39 634.333 630.05 626.018 621.75 617.745 613.013
608.188 603.113 598.453 593.528 589.026 584.243 579.892 575.245 571.037 566.52
562.449 558.055 554.117 549.84 546.028 541.863 538.173 534.115 530.541 526.585
523.124 519.265 515.911 512.145 508.896 505.219 502.069 498.477 495.423 491.913
488.952 485.52 482.649 479.29 476.506 473.219 470.518 467.3 464.68 461.527
458.985 455.895 453.429 450.399 448.007 445.034 442.713 439.795 437.543 434.678
432.493 429.679 427.559 424.794 422.737 420.019 418.024 415.35 413.414 410.784
408.906 406.317 404.496 401.946 400.18 397.668 395.956 393.48 391.821 389.38
387.772 385.365 383.806 381.431 379.921 377.577 376.115 373.8 372.385 370.098
368.728 366.469 365.143 362.91 361.628 359.42 358.181 355.996 354.799 352.636
351.486 349.31 348.381 345.296 
Cx 1 545 float
-0.328655 -0.319422 -0.310433 -0.301681 -0.293159 -0.284862 -0.276784 -0.268919 -0.261261 -0.253805 -0.246546
-0.239478 -0.232596 -0.225896 -0.219373 -0.213021 -0.206837 -0.200816 -0.194954 -0.189246 -0.183689
-0.178279 -0.173011 -0.167882 -0.162888 -0.158026 -0.153292 -0.148682 -0.144195 -0.139825 -0.135571
-0.131429 -0.127397 -0.12347 -0.119647 -0.115925 -0.112301 -0.108773 -0.105338 -0.101993 -0.0987361
-0.0955654 -0.0924782 -0.0894725 -0.086546 -0.0836967 -0.0809225 -0.0782214 -0.0755915 -0.073031 -0.070538
-0.0681108 -0.0657475 -0.0634465 -0.0612063 -0.059025 -0.0569013 -0.0548336 -0.0528204 -0.0508603 -0.0489518
-0.0470937 -0.0452846 -0.0435232 -0.0418082 -0.0401384 -0.0385127 -0.0369298 -0.0353886 -0.0338881 -0.0324272
-0.0310047 -0.0296379 -0.0283107 -0.0269895 -0.0256744 -0.0243653 -0.0230622 -0.021765 -0.0204738 -0.0191885
-0.017909 -0.0166354 -0.0153676 -0.0141056 -0.0128494 -0.0115989 -0.0103541 -0.00911506 -0.00788164 -0.00665386
-0.00543169 -0.00421511 -0.00300408 -0.00179859 -0.000598615 0.000485708 0.00145827 0.00243313 0.00341029 0.00438975
0.00537153 0.00635563 0.00734204 0.00833079 0.00932187 0.0103153 0.011311 0.0123092 0.0133096 0.0143125
0.0153177 0.0163252 0.0173352 0.0183475 0.0193622 0.0203793 0.0213988 0.0224208 0.0234451 0.0244718
0.025501 0.0265326 0.0275667 0.0286031 0.0296421 0.0306834 0.0317273 0.0327736 0.0338223 0.0348736
0.0359273 0.0369835 0.0380422 0.0391034 0.0401671 0.0412333 0.0423021 0.0433733 0.0444471 0.0455234
0.0466023 0.0476837 0.0487676 0.0498542 0.0509432 0.0520349 0.0531291 0.0542259 0.0553253 0.0564273
0.0575319 0.0586391 0.0597489 0.0608614 0.0619764 0.0630941 0.0642144 0.0653374 0.066463 0.0675913
0.0687222 0.0698559 0.0709921 0.0721311 0.0732728 0.0744171 0.0755642 0.0767139 0.0778664 0.0790216
0.0801795 0.0813402 0.0825035 0.0836697 0.0848386 0.0860102 0.0871846 0.0883618 0.0895418 0.0907245
0.0919101 0.0930984 0.0942895 0.0954835 0.0966803 0.0978799 0.0990823 0.100288 0.101496 0.102707
0.10392 0.105137 0.106357 0.107579 0.108804 0.110033 0.111264 0.112498 0.113735 0.114975
0.116217 0.117463 0.118712 0.119963 0.121218 0.122475 0.123736 0.124999 0.126266 0.127535
0.128808 0.130083 0.131361 0.132643 0.133927 0.135215 0.136505 0.137799 0.139096 0.140395
0.141698 0.143004 0.144313 0.145625 0.14694 0.148258 0.149579 0.150904 0.152231 0.153562
0.154896 0.156233 0.157573 0.158916 0.160263 0.161613 0.162965 0.164321 0.165681 0.167043
0.168409 0.169778 0.17115 0.172525 0.173904 0.175286 0.176671 0.178059 0.179451 0.180846
0.182244 0.183646 0.18505 0.186459 0.18787 0.189285 0.190703 0.192124 0.193549 0.194978
0.196409 0.197844 0.199282 0.200724 0.202169 0.203618 0.20507 0.206525 0.207903 0.209207
0.210526 0.211859 0.213207 0.214569 0.215947 0.217339 0.218746 0.220168 0.221606 0.22306
0.224529 0.226015 0.227516 0.229034 0.230569 0.23212 0.233687 0.235272 0.236875 0.238494
0.240131 0.241786 0.243459 0.24515 0.24686 0.248588 0.250335 0.252101 0.253886 0.25569
0.257514 0.259358 0.261222 0.263106 0.265011 0.266937 0.268883 0.27085 0.272839 0.27485
0.276882 0.278936 0.281013 0.283113 0.285235 0.28738 0.289548 0.291741 0.293956 0.296196
0.298461 0.30075 0.303064 0.305403 0.307767 0.310157 0.312573 0.315016 0.317485 0.31998
0.322503 0.325053 0.327632 0.330238 0.332872 0.335535 0.338227 0.340948 0.343699 0.346479
0.34929 0.352132 0.355004 0.357908 0.360843 0.36381 0.366809 0.369841 0.372906 0.376004
0.379136 0.382302 0.385502 0.388737 0.392007 0.395313 0.398654 0.402032 0.405447 0.408899
0.412388 0.415916 0.419481 0.423086 0.426729 0.430412 0.434136 0.437899 0.441704 0.44555
0.449437 0.453367 0.45734 0.461356 0.465415 0.469519 0.473667 0.477861 0.4821 0.486385
0.490716 0.495095 0.499521 0.503995 0.508518 0.51309 0.517712 0.522384 0.527107 0.531881
0.536707 0.541586 0.546518 0.551503 0.556542 0.561636 0.566786 0.571991 0.577253 0.582572
0.587949 0.593385 0.59888 0.604434 0.610048 0.615724 0.621462 0.627261 0.633124 0.639051
0.645042 0.651098 0.657219 0.663408 0.669664 0.675987 0.68238 0.688842 0.695374 0.701977
0.708652 0.715399 0.72222 0.729115 0.736085 0.74313 0.750252 0.757452 0.76473 0.772087
0.779524 0.787042 0.794641 0.802323 0.810089 0.817939 0.825874 0.833896 0.842004 0.850201
0.858487 0.866863 0.87533 0.883889 0.892542 0.901288 0.910129 0.919066 0.928101 0.93826
0.949495 0.960731 0.971966 0.983202 0.994437 1.00567 1.01691 1.02814 1.03938 1.05061
1.06185 1.07308 1.08432 1.09555 1.10679 1.11803 1.12926 1.1405 1.15173 1.16297
1.1742 1.18544 1.19667 1.20791 1.21914 1.23038 1.24161 1.25285 1.26409 1.27532
1.28656 1.29779 1.30903 1.32026 1.3315 1.34273 1.35397 1.3652 1.37644 1.38767
1.39891 1.41014 1.42138 1.43262 1.44385 1.45509 1.46632 1.47756 1.48879 1.50003
1.51126 1.5225 1.53373 1.54497 1.5562 1.56744 1.57867 1.58991 1.60115 1.61238
1.62362 1.63485 1.64609 1.65732 1.66856 1.67979 1.69103 1.70226 1.7135 1.72473
1.73597 1.7472 1.75844 1.76968 1.78091 1.79215 1.80338 1.81462 1.82585 1.83709
1.84832 1.85956 1.87079 1.88203 1.89326 1.9045 1.91573 1.92697 1.93821 1.94944
1.96068 1.97191 1.98315 1.99438 
yPlus 1 545 float
0.059315 0.102276 0.131211 0.154238 0.173733 0.190792 0.206029 0.219833 0.232467 0.24412 0.254936
0.265023 0.274469 0.283344 0.291708 0.299608 0.307088 0.314181 0.32092 0.327332 0.333441
0.339268 0.344831 0.350149 0.355236 0.360107 0.364774 0.36925 0.373544 0.377666 0.381626
0.385433 0.389093 0.392614 0.396004 0.399267 0.402411 0.40544 0.40836 0.411177 0.413893
0.416514 0.419044 0.421486 0.423845 0.426123 0.428325 0.430453 0.432509 0.434498 0.436421
0.438281 0.44008 0.441822 0.443507 0.445138 0.446718 0.448247 0.449728 0.451162 0.452552
0.453898 0.455203 0.456467 0.457693 0.458881 0.460033 0.46115 0.462233 0.463283 0.464302
0.46529 0.466236 0.467152 0.46806 0.468961 0.469855 0.470742 0.471622 0.472495 0.473362
0.474221 0.475074 0.47592 0.47676 0.477593 0.478419 0.47924 0.480054 0.480861 0.481663
0.482458 0.483248 0.484031 0.484808 0.48558 0.486275 0.486897 0.487518 0.48814 0.488762
0.489383 0.490005 0.490626 0.491247 0.491868 0.49249 0.493111 0.493732 0.494352 0.494973
0.495594 0.496214 0.496835 0.497455 0.498075 0.498695 0.499315 0.499935 0.500554 0.501174
0.501793 0.502412 0.503031 0.50365 0.504269 0.504887 0.505506 0.506124 0.506742 0.50736
0.507977 0.508595 0.509212 0.509829 0.510446 0.511063 0.511679 0.512295 0.512911 0.513527
0.514143 0.514758 0.515373 0.515988 0.516603 0.517217 0.517831 0.518445 0.519058 0.519672
0.520285 0.520898 0.52151 0.522122 0.522734 0.523346 0.523957 0.524568 0.525179 0.525789
0.526399 0.527009 0.527618 0.528227 0.528836 0.529444 0.530052 0.53066 0.531267 0.531874
0.532481 0.533087 0.533693 0.534298 0.534903 0.535508 0.536112 0.536716 0.53732 0.537923
0.538525 0.539127 0.539729 0.54033 0.540931 0.541531 0.542131 0.542731 0.54333 0.543928
0.544526 0.545124 0.545721 0.546318 0.546914 0.547509 0.548104 0.548699 0.549293 0.549886
0.550479 0.551072 0.551663 0.552255 0.552845 0.553436 0.554025 0.554614 0.555203 0.55579
0.556378 0.556964 0.55755 0.558136 0.55872 0.559305 0.559888 0.560471 0.561053 0.561635
0.562216 0.562796 0.563375 0.563954 0.564533 0.56511 0.565687 0.566263 0.566838 0.567413
0.567987 0.56856 0.569133 0.569704 0.570275 0.570846 0.571415 0.571984 0.572552 0.573119
0.573685 0.574251 0.574815 0.575379 0.575942 0.576504 0.577066 0.577626 0.578186 0.578745
0.579303 0.57986 0.580416 0.580972 0.581526 0.58208 0.582632 0.583184 0.583735 0.584285
0.584834 0.585382 0.585929 0.586475 0.58702 0.587565 0.588108 0.58865 0.589161 0.589644
0.590129 0.590618 0.591111 0.591607 0.592106 0.592608 0.593114 0.593624 0.594137 0.594653
0.595173 0.595696 0.596222 0.596752 0.597285 0.597821 0.598361 0.598904 0.59945 0.6
0.600553 0.601109 0.601669 0.602231 0.602797 0.603366 0.603939 0.604514 0.605093 0.605674
0.606259 0.606847 0.607438 0.608032 0.608628 0.609228 0.609831 0.610436 0.611045 0.611656
0.61227 0.612886 0.613506 0.614128 0.614752 0.615379 0.616009 0.616641 0.617275 0.617912
0.618551 0.619192 0.619835 0.620481 0.621128 0.621778 0.622429 0.623083 0.623738 0.624394
0.625053 0.625713 0.626374 0.627037 0.627702 0.628367 0.629034 0.629702 0.63037 0.63104
0.63171 0.632381 0.633053 0.633726 0.634398 0.635071 0.635744 0.636418 0.637091 0.637764
0.638437 0.63911 0.639782 0.640453 0.641124 0.641794 0.642463 0.643131 0.643797 0.644462
0.645126 0.645788 0.646449 0.647107 0.647763 0.648418 0.649069 0.649719 0.650365 0.651009
0.65165 0.652288 0.652922 0.653553 0.654181 0.654804 0.655424 0.65604 0.656651 0.657258
0.65786 0.658458 0.659051 0.659638 0.660221 0.660798 0.661369 0.661934 0.662494 0.663047
0.663594 0.664134 0.664668 0.665195 0.665715 0.666228 0.666733 0.667231 0.667721 0.668203
0.668677 0.669143 0.6696 0.670049 0.670489 0.67092 0.671342 0.671755 0.672159 0.672553
0.672937 0.673312 0.673676 0.67403 0.674374 0.674708 0.675031 0.675344 0.675645 0.675936
0.676216 0.676485 0.676742 0.676988 0.677223 0.677446 0.677658 0.677858 0.678045 0.678222
0.678386 0.678538 0.678679 0.678807 0.678923 0.679027 0.679119 0.679199 0.679266 0.679322
0.679365 0.679396 0.679415 0.679422 0.679416 0.679399 0.67937 0.679328 0.679275 0.679202
0.679106 0.678994 0.678867 0.678727 0.678574 0.678408 0.67823 0.678041 0.677841 0.677632
0.677413 0.677186 0.67695 0.676707 0.676457 0.6762 0.675937 0.675669 0.675395 0.675117
0.674834 0.674548 0.674258 0.673965 0.673669 0.673372 0.673071 0.67277 0.672467 0.672163
0.671858 0.671553 0.671248 0.670943 0.670638 0.670335 0.670032 0.66973 0.66943 0.669131
0.668834 0.66854 0.668247 0.667958 0.667671 0.667387 0.667105 0.666828 0.666554 0.666283
0.666016 0.665754 0.665495 0.665241 0.66499 0.664745 0.664504 0.664269 0.664038 0.663812
0.663591 0.663377 0.663167 0.662963 0.662764 0.662572 0.662385 0.662205 0.66203 0.661862
0.661699 0.661544 0.661394 0.661252 0.661115 0.660986 0.660863 0.660748 0.660638 0.660536
0.660441 0.660353 0.660271 0.660198 0.66013 0.660071 0.660018 0.659973 0.659935 0.659904
0.65988 0.659864 0.659856 0.659853 
wallShearStress 3 545 float
1.95886e-08 -2.58993e-08 0 1.95825e-08 -7.24456e-08 0 1.95717e-08 -1.20844e-07 0 1.95563e-08 -1.67842e-07
0 1.95369e-08 -2.1284e-07 0 1.9514e-08 -2.56414e-07 0 1.94877e-08 -2.98937e-07 0
1.94585e-08 -3.40386e-07 0 1.94264e-08 -3.80673e-07 0 1.93919e-08 -4.19795e-07 0 1.9355e-08
-4.57805e-07 0 1.93161e-08 -4.94746e-07 0 1.92753e-08 -5.30643e-07 0 1.92328e-08 -5.65518e-07
0 1.91889e-08 -5.99396e-07 0 1.91437e-08 -6.32303e-07 0 1.90973e-08 -6.64265e-07 0
1.90499e-08 -6.95308e-07 0 1.90016e-08 -7.25457e-07 0 1.89526e-08 -7.54736e-07 0 1.8903e-08
-7.83168e-07 0 1.8853e-08 -8.10777e-07 0 1.88025e-08 -8.37587e-07 0 1.87517e-08 -8.6362e-07
0 1.87008e-08 -8.88897e-07 0 1.86497e-08 -9.13441e-07 0 1.85986e-08 -9.37272e-07 0
1.85476e-08 -9.60411e-07 0 1.84967e-08 -9.82878e-07 0 1.84459e-08 -1.00469e-06 0 1.83954e-08
-1.02587e-06 0 1.83451e-08 -1.04644e-06 0 1.82952e-08 -1.06641e-06 0 1.82457e-08 -1.0858e-06
0 1.81966e-08 -1.10463e-06 0 1.8148e-08 -1.12291e-06 0 1.80998e-08 -1.14066e-06 0
1.80522e-08 -1.1579e-06 0 1.80051e-08 -1.17464e-06 0 1.79585e-08 -1.19089e-06 0 1.79126e-08
-1.20668e-06 0 1.78673e-08 -1.22201e-06 0 1.78226e-08 -1.2369e-06 0 1.77786e-08 -1.25136e-06
0 1.77352e-08 -1.26541e-06 0 1.76925e-08 -1.27905e-06 0 1.76504e-08 -1.2923e-06 0
1.7609e-08 -1.30517e-06 0 1.75684e-08 -1.31767e-06 0 1.75284e-08 -1.32982e-06 0 1.74891e-08
-1.34161e-06 0 1.74505e-08 -1.35307e-06 0 1.74126e-08 -1.36421e-06 0 1.73754e-08 -1.37503e-06
0 1.73388e-08 -1.38554e-06 0 1.7303e-08 -1.39575e-06 0 1.72679e-08 -1.40567e-06 0
1.72334e-08 -1.41531e-06 0 1.71997e-08 -1.42468e-06 0 1.71666e-08 -1.43378e-06 0 1.71341e-08
-1.44263e-06 0 1.71024e-08 -1.45122e-06 0 1.70713e-08 -1.45958e-06 0 1.70408e-08 -1.4677e-06
0 1.7011e-08 -1.47559e-06 0 1.69818e-08 -1.48326e-06 0 1.69532e-08 -1.49071e-06 0
1.69253e-08 -1.49796e-06 0 1.68979e-08 -1.505e-06 0 1.68712e-08 -1.51185e-06 0 1.6845e-08
-1.51851e-06 0 1.68196e-08 -1.52497e-06 0 1.67949e-08 -1.53119e-06 0 1.67705e-08 -1.53722e-06
0 1.67464e-08 -1.54319e-06 0 1.67224e-08 -1.54913e-06 0 1.66984e-08 -1.55505e-06 0
1.66744e-08 -1.56093e-06 0 1.66505e-08 -1.56677e-06 0 1.66265e-08 -1.57258e-06 0 1.66026e-08
-1.57835e-06 0 1.65788e-08 -1.58408e-06 0 1.65549e-08 -1.58979e-06 0 1.65311e-08 -1.59546e-06
0 1.65073e-08 -1.60109e-06 0 1.64835e-08 -1.60669e-06 0 1.64597e-08 -1.61226e-06 0
1.6436e-08 -1.61779e-06 0 1.64123e-08 -1.62329e-06 0 1.63887e-08 -1.62876e-06 0 1.63651e-08
-1.63419e-06 0 1.63415e-08 -1.63959e-06 0 1.63179e-08 -1.64496e-06 0 1.62944e-08 -1.6503e-06
0 1.62707e-08 -1.65561e-06 0 1.62482e-08 -1.66084e-06 0 1.62274e-08 -1.66562e-06 0
1.62073e-08 -1.66996e-06 0 1.61879e-08 -1.67418e-06 0 1.61685e-08 -1.67842e-06 0 1.61491e-08
-1.68271e-06 0 1.61296e-08 -1.687e-06 0 1.61101e-08 -1.69129e-06 0 1.60904e-08 -1.69558e-06
0 1.60706e-08 -1.69987e-06 0 1.60508e-08 -1.70418e-06 0 1.60308e-08 -1.70848e-06 0
1.60108e-08 -1.71279e-06 0 1.59907e-08 -1.71711e-06 0 1.59704e-08 -1.72143e-06 0 1.59501e-08
-1.72576e-06 0 1.59297e-08 -1.73009e-06 0 1.59092e-08 -1.73442e-06 0 1.58885e-08 -1.73876e-06
0 1.58678e-08 -1.74311e-06 0 1.5847e-08 -1.74745e-06 0 1.58261e-08 -1.75181e-06 0
1.58051e-08 -1.75617e-06 0 1.5784e-08 -1.76053e-06 0 1.57628e-08 -1.76489e-06 0 1.57415e-08
-1.76927e-06 0 1.57201e-08 -1.77364e-06 0 1.56986e-08 -1.77802e-06 0 1.56771e-08 -1.7824e-06
0 1.56554e-08 -1.78679e-06 0 1.56336e-08 -1.79119e-06 0 1.56117e-08 -1.79558e-06 0
1.55897e-08 -1.79998e-06 0 1.55676e-08 -1.80439e-06 0 1.55454e-08 -1.8088e-06 0 1.55231e-08
-1.81321e-06 0 1.55007e-08 -1.81763e-06 0 1.54782e-08 -1.82205e-06 0 1.54557e-08 -1.82647e-06
0 1.5433e-08 -1.8309e-06 0 1.54102e-08 -1.83534e-06 0 1.53873e-08 -1.83977e-06 0
1.53643e-08 -1.84422e-06 0 1.53412e-08 -1.84866e-06 0 1.53179e-08 -1.85311e-06 0 1.52946e-08
-1.85756e-06 0 1.52712e-08 -1.86202e-06 0 1.52477e-08 -1.86648e-06 0 1.52241e-08 -1.87094e-06
0 1.52004e-08 -1.87541e-06 0 1.51765e-08 -1.87988e-06 0 1.51526e-08 -1.88435e-06 0
1.51285e-08 -1.88883e-06 0 1.51044e-08 -1.89331e-06 0 1.50801e-08 -1.89779e-06 0 1.50558e-08
-1.90228e-06 0 1.50313e-08 -1.90677e-06 0 1.50068e-08 -1.91126e-06 0 1.49821e-08 -1.91576e-06
0 1.49573e-08 -1.92026e-06 0 1.49324e-08 -1.92477e-06 0 1.49074e-08 -1.92927e-06 0
1.48823e-08 -1.93378e-06 0 1.48571e-08 -1.93829e-06 0 1.48318e-08 -1.94281e-06 0 1.48064e-08
-1.94733e-06 0 1.47808e-08 -1.95185e-06 0 1.47552e-08 -1.95637e-06 0 1.47294e-08 -1.9609e-06
0 1.47036e-08 -1.96543e-06 0 1.46776e-08 -1.96996e-06 0 1.46515e-08 -1.9745e-06 0
1.46254e-08 -1.97904e-06 0 1.45991e-08 -1.98358e-06 0 1.45727e-08 -1.98812e-06 0 1.45462e-08
-1.99266e-06 0 1.45195e-08 -1.99721e-06 0 1.44928e-08 -2.00176e-06 0 1.4466e-08 -2.00631e-06
0 1.4439e-08 -2.01087e-06 0 1.4412e-08 -2.01542e-06 0 1.43848e-08 -2.01998e-06 0
1.43575e-08 -2.02454e-06 0 1.43301e-08 -2.02911e-06 0 1.43026e-08 -2.03367e-06 0 1.4275e-08
-2.03824e-06 0 1.42473e-08 -2.04281e-06 0 1.42194e-08 -2.04738e-06 0 1.41915e-08 -2.05195e-06
0 1.41634e-08 -2.05653e-06 0 1.41353e-08 -2.0611e-06 0 1.4107e-08 -2.06568e-06 0
1.40786e-08 -2.07026e-06 0 1.40501e-08 -2.07484e-06 0 1.40215e-08 -2.07942e-06 0 1.39928e-08
-2.08401e-06 0 1.39639e-08 -2.08859e-06 0 1.3935e-08 -2.09318e-06 0 1.39059e-08 -2.09777e-06
0 1.38767e-08 -2.10235e-06 0 1.38475e-08 -2.10694e-06 0 1.38181e-08 -2.11154e-06 0
1.37886e-08 -2.11613e-06 0 1.37589e-08 -2.12072e-06 0 1.37292e-08 -2.12531e-06 0 1.36994e-08
-2.12991e-06 0 1.36694e-08 -2.13451e-06 0 1.36393e-08 -2.1391e-06 0 1.36091e-08 -2.1437e-06
0 1.35788e-08 -2.1483e-06 0 1.35484e-08 -2.15289e-06 0 1.35179e-08 -2.15749e-06 0
1.34873e-08 -2.16209e-06 0 1.34565e-08 -2.16669e-06 0 1.34257e-08 -2.17129e-06 0 1.33947e-08
-2.17589e-06 0 1.33636e-08 -2.18049e-06 0 1.33324e-08 -2.18509e-06 0 1.33011e-08 -2.18969e-06
0 1.32697e-08 -2.19429e-06 0 1.32382e-08 -2.19889e-06 0 1.32065e-08 -2.20349e-06 0
1.31748e-08 -2.20809e-06 0 1.31429e-08 -2.21269e-06 0 1.3111e-08 -2.21729e-06 0 1.30789e-08
-2.22189e-06 0 1.30467e-08 -2.22649e-06 0 1.30144e-08 -2.23109e-06 0 1.29819e-08 -2.23569e-06
0 1.29494e-08 -2.24028e-06 0 1.29168e-08 -2.24488e-06 0 1.2884e-08 -2.24947e-06 0
1.28511e-08 -2.25407e-06 0 1.28182e-08 -2.25866e-06 0 1.27851e-08 -2.26325e-06 0 1.27519e-08
-2.26785e-06 0 1.27186e-08 -2.27244e-06 0 1.26851e-08 -2.27702e-06 0 1.26516e-08 -2.28161e-06
0 1.2618e-08 -2.2862e-06 0 1.25842e-08 -2.29078e-06 0 1.25504e-08 -2.29537e-06 0
1.25164e-08 -2.29995e-06 0 1.24823e-08 -2.30453e-06 0 1.24481e-08 -2.30911e-06 0 1.24139e-08
-2.31368e-06 0 1.23795e-08 -2.31826e-06 0 1.23449e-08 -2.32283e-06 0 1.23103e-08 -2.3274e-06
0 1.22756e-08 -2.33197e-06 0 1.22408e-08 -2.33653e-06 0 1.22058e-08 -2.3411e-06 0
1.21708e-08 -2.34566e-06 0 1.21356e-08 -2.35022e-06 0 1.21004e-08 -2.35478e-06 0 1.2065e-08
-2.35933e-06 0 1.20296e-08 -2.36388e-06 0 1.1994e-08 -2.36843e-06 0 1.19583e-08 -2.37298e-06
0 1.19225e-08 -2.37752e-06 0 1.18866e-08 -2.38206e-06 0 1.18506e-08 -2.3866e-06 0
1.18145e-08 -2.39113e-06 0 1.17783e-08 -2.39566e-06 0 1.1742e-08 -2.40019e-06 0 1.17056e-08
-2.40471e-06 0 1.16691e-08 -2.40924e-06 0 1.16325e-08 -2.41375e-06 0 1.15958e-08 -2.41827e-06
0 1.1559e-08 -2.42278e-06 0 1.15221e-08 -2.42728e-06 0 1.14851e-08 -2.43178e-06 0
1.14478e-08 -2.43629e-06 0 1.14115e-08 -2.44076e-06 0 1.13767e-08 -2.44501e-06 0 1.13424e-08
-2.44905e-06 0 1.13084e-08 -2.45307e-06 0 1.12742e-08 -2.45712e-06 0 1.12397e-08 -2.46122e-06
0 1.12048e-08 -2.46536e-06 0 1.11696e-08 -2.46952e-06 0 1.11339e-08 -2.47371e-06 0
1.10979e-08 -2.47794e-06 0 1.10615e-08 -2.4822e-06 0 1.10246e-08 -2.48649e-06 0 1.09874e-08
-2.49081e-06 0 1.09497e-08 -2.49516e-06 0 1.09117e-08 -2.49955e-06 0 1.08732e-08 -2.50397e-06
0 1.08343e-08 -2.50842e-06 0 1.0795e-08 -2.5129e-06 0 1.07553e-08 -2.51742e-06 0
1.07151e-08 -2.52197e-06 0 1.06745e-08 -2.52655e-06 0 1.06335e-08 -2.53116e-06 0 1.0592e-08
-2.5358e-06 0 1.05501e-08 -2.54048e-06 0 1.05077e-08 -2.54519e-06 0 1.04649e-08 -2.54993e-06
0 1.04216e-08 -2.5547e-06 0 1.03779e-08 -2.5595e-06 0 1.03337e-08 -2.56434e-06 0
1.0289e-08 -2.5692e-06 0 1.02439e-08 -2.5741e-06 0 1.01983e-08 -2.57903e-06 0 1.01522e-08
-2.58399e-06 0 1.01056e-08 -2.58898e-06 0 1.00586e-08 -2.594e-06 0 1.00111e-08 -2.59906e-06
0 9.96306e-09 -2.60414e-06 0 9.91455e-09 -2.60926e-06 0 9.86555e-09 -2.6144e-06 0
9.81605e-09 -2.61957e-06 0 9.76604e-09 -2.62478e-06 0 9.71553e-09 -2.63001e-06 0 9.66452e-09
-2.63528e-06 0 9.61299e-09 -2.64057e-06 0 9.56095e-09 -2.64589e-06 0 9.50839e-09 -2.65124e-06
0 9.45531e-09 -2.65662e-06 0 9.40172e-09 -2.66202e-06 0 9.3476e-09 -2.66745e-06 0
9.29295e-09 -2.67291e-06 0 9.23777e-09 -2.6784e-06 0 9.18207e-09 -2.68391e-06 0 9.12583e-09
-2.68945e-06 0 9.06906e-09 -2.69502e-06 0 9.01175e-09 -2.70061e-06 0 8.9539e-09 -2.70622e-06
0 8.89552e-09 -2.71186e-06 0 8.83659e-09 -2.71752e-06 0 8.77712e-09 -2.72321e-06 0
8.71711e-09 -2.72892e-06 0 8.65656e-09 -2.73465e-06 0 8.59546e-09 -2.7404e-06 0 8.53382e-09
-2.74618e-06 0 8.47163e-09 -2.75197e-06 0 8.40889e-09 -2.75779e-06 0 8.34561e-09 -2.76362e-06
0 8.28178e-09 -2.76947e-06 0 8.21741e-09 -2.77534e-06 0 8.15249e-09 -2.78123e-06 0
8.08703e-09 -2.78713e-06 0 8.02102e-09 -2.79305e-06 0 7.95448e-09 -2.79899e-06 0 7.88739e-09
-2.80494e-06 0 7.81976e-09 -2.8109e-06 0 7.7516e-09 -2.81688e-06 0 7.6829e-09 -2.82286e-06
0 7.61367e-09 -2.82886e-06 0 7.54391e-09 -2.83487e-06 0 7.47362e-09 -2.84089e-06 0
7.40281e-09 -2.84691e-06 0 7.33148e-09 -2.85294e-06 0 7.25963e-09 -2.85898e-06 0 7.18727e-09
-2.86503e-06 0 7.11441e-09 -2.87108e-06 0 7.04104e-09 -2.87713e-06 0 6.96717e-09 -2.88318e-06
0 6.89282e-09 -2.88924e-06 0 6.81797e-09 -2.89529e-06 0 6.74265e-09 -2.90134e-06 0
6.66685e-09 -2.90739e-06 0 6.59059e-09 -2.91344e-06 0 6.51386e-09 -2.91948e-06 0 6.43669e-09
-2.92552e-06 0 6.35907e-09 -2.93155e-06 0 6.28102e-09 -2.93757e-06 0 6.20254e-09 -2.94358e-06
0 6.12364e-09 -2.94957e-06 0 6.04434e-09 -2.95556e-06 0 5.96464e-09 -2.96153e-06 0
5.88455e-09 -2.96749e-06 0 5.80409e-09 -2.97343e-06 0 5.72326e-09 -2.97935e-06 0 5.64208e-09
-2.98525e-06 0 5.56056e-09 -2.99113e-06 0 5.47871e-09 -2.99698e-06 0 5.39654e-09 -3.00282e-06
0 5.31408e-09 -3.00862e-06 0 5.23132e-09 -3.0144e-06 0 5.1483e-09 -3.02015e-06 0
5.06501e-09 -3.02587e-06 0 4.98149e-09 -3.03156e-06 0 4.89773e-09 -3.03721e-06 0 4.81377e-09
-3.04283e-06 0 4.72961e-09 -3.0484e-06 0 4.64528e-09 -3.05394e-06 0 4.56078e-09 -3.05944e-06
0 4.47615e-09 -3.0649e-06 0 4.39139e-09 -3.07031e-06 0 4.30653e-09 -3.07568e-06 0
4.22159e-09 -3.081e-06 0 4.13658e-09 -3.08627e-06 0 4.05153e-09 -3.09148e-06 0 3.96646e-09
-3.09665e-06 0 3.88138e-09 -3.10176e-06 0 3.79632e-09 -3.10681e-06 0 3.71131e-09 -3.11181e-06
0 3.62636e-09 -3.11674e-06 0 3.54149e-09 -3.12161e-06 0 3.45674e-09 -3.12642e-06 0
3.37212e-09 -3.13117e-06 0 3.28765e-09 -3.13584e-06 0 3.20336e-09 -3.14045e-06 0 3.11928e-09
-3.14499e-06 0 3.03543e-09 -3.14945e-06 0 2.95184e-09 -3.15384e-06 0 2.86852e-09 -3.15815e-06
0 2.78551e-09 -3.16238e-06 0 2.70283e-09 -3.16654e-06 0 2.6205e-09 -3.17061e-06 0
2.53856e-09 -3.1746e-06 0 2.45702e-09 -3.1785e-06 0 2.37592e-09 -3.18232e-06 0 2.29528e-09
-3.18605e-06 0 2.21513e-09 -3.18969e-06 0 2.13549e-09 -3.19324e-06 0 2.05639e-09 -3.1967e-06
0 1.97786e-09 -3.20006e-06 0 1.89992e-09 -3.20333e-06 0 1.8226e-09 -3.2065e-06 0
1.74593e-09 -3.20957e-06 0 1.66992e-09 -3.21254e-06 0 1.59462e-09 -3.21541e-06 0 1.52004e-09
-3.21818e-06 0 1.44621e-09 -3.22084e-06 0 1.37315e-09 -3.2234e-06 0 1.3009e-09 -3.22585e-06
0 1.22947e-09 -3.2282e-06 0 1.15889e-09 -3.23044e-06 0 1.08918e-09 -3.23257e-06 0
1.02038e-09 -3.23458e-06 0 9.5249e-10 -3.23649e-06 0 8.85549e-10 -3.23828e-06 0 8.19575e-10
-3.23997e-06 0 7.5459e-10 -3.24153e-06 0 6.90617e-10 -3.24299e-06 0 6.27675e-10 -3.24433e-06
0 5.65786e-10 -3.24556e-06 0 5.0497e-10 -3.24666e-06 0 4.45245e-10 -3.24766e-06 0
3.8663e-10 -3.24854e-06 0 3.29144e-10 -3.2493e-06 0 2.72804e-10 -3.24994e-06 0 2.17625e-10
-3.25047e-06 0 1.63625e-10 -3.25088e-06 0 1.10817e-10 -3.25118e-06 0 5.9217e-11 -3.25136e-06
0 8.83964e-12 -3.25143e-06 0 -4.03119e-11 -3.25137e-06 0 -8.81845e-11 -3.25121e-06 0
-1.3494e-10 -3.25092e-06 0 -1.79841e-10 -3.25053e-06 0 -2.25932e-10 -3.25001e-06 0 -2.74317e-10
-3.24931e-06 0 -3.22404e-10 -3.2484e-06 0 -3.69504e-10 -3.24733e-06 0 -4.14452e-10 -3.24611e-06
0 -4.57106e-10 -3.24477e-06 0 -4.97498e-10 -3.2433e-06 0 -5.35678e-10 -3.24172e-06 0
-5.71702e-10 -3.24001e-06 0 -6.05638e-10 -3.23821e-06 0 -6.37557e-10 -3.2363e-06 0 -6.67527e-10
-3.2343e-06 0 -6.95612e-10 -3.23221e-06 0 -7.21875e-10 -3.23005e-06 0 -7.46375e-10 -3.2278e-06
0 -7.69175e-10 -3.22548e-06 0 -7.9033e-10 -3.22309e-06 0 -8.09897e-10 -3.22065e-06 0
-8.27928e-10 -3.21814e-06 0 -8.44479e-10 -3.21559e-06 0 -8.59596e-10 -3.21298e-06 0 -8.73332e-10
-3.21034e-06 0 -8.85731e-10 -3.20765e-06 0 -8.96842e-10 -3.20492e-06 0 -9.06706e-10 -3.20217e-06
0 -9.15368e-10 -3.19939e-06 0 -9.22866e-10 -3.19658e-06 0 -9.29244e-10 -3.19375e-06 0
-9.34535e-10 -3.1909e-06 0 -9.38781e-10 -3.18805e-06 0 -9.42013e-10 -3.18517e-06 0 -9.44268e-10
-3.1823e-06 0 -9.45576e-10 -3.17941e-06 0 -9.45973e-10 -3.17652e-06 0 -9.45483e-10 -3.17364e-06
0 -9.44142e-10 -3.17075e-06 0 -9.41973e-10 -3.16787e-06 0 -9.39006e-10 -3.16501e-06 0
-9.35264e-10 -3.16214e-06 0 -9.30776e-10 -3.1593e-06 0 -9.25562e-10 -3.15646e-06 0 -9.19649e-10
-3.15365e-06 0 -9.13055e-10 -3.15085e-06 0 -9.05806e-10 -3.14808e-06 0 -8.97919e-10 -3.14532e-06
0 -8.89416e-10 -3.1426e-06 0 -8.80314e-10 -3.13989e-06 0 -8.70635e-10 -3.13723e-06 0
-8.60393e-10 -3.13458e-06 0 -8.49609e-10 -3.13197e-06 0 -8.38295e-10 -3.1294e-06 0 -8.26472e-10
-3.12686e-06 0 -8.14152e-10 -3.12435e-06 0 -8.01352e-10 -3.12189e-06 0 -7.88086e-10 -3.11946e-06
0 -7.74369e-10 -3.11708e-06 0 -7.60212e-10 -3.11473e-06 0 -7.45633e-10 -3.11244e-06 0
-7.30642e-10 -3.11018e-06 0 -7.15254e-10 -3.10798e-06 0 -6.99478e-10 -3.10581e-06 0 -6.83331e-10
-3.10371e-06 0 -6.66821e-10 -3.10164e-06 0 -6.49962e-10 -3.09963e-06 0 -6.32765e-10 -3.09767e-06
0 -6.15243e-10 -3.09577e-06 0 -5.97404e-10 -3.09391e-06 0 -5.79263e-10 -3.09212e-06 0
-5.60827e-10 -3.09037e-06 0 -5.42111e-10 -3.08869e-06 0 -5.23123e-10 -3.08706e-06 0 -5.03875e-10
-3.08549e-06 0 -4.84376e-10 -3.08398e-06 0 -4.64639e-10 -3.08253e-06 0 -4.44672e-10 -3.08114e-06
0 -4.24487e-10 -3.07981e-06 0 -4.04094e-10 -3.07854e-06 0 -3.83503e-10 -3.07733e-06 0
-3.62725e-10 -3.07619e-06 0 -3.4177e-10 -3.07511e-06 0 -3.20647e-10 -3.07409e-06 0 -2.99368e-10
-3.07315e-06 0 -2.77942e-10 -3.07226e-06 0 -2.5638e-10 -3.07144e-06 0 -2.34691e-10 -3.07068e-06
0 -2.12887e-10 -3.06999e-06 0 -1.90976e-10 -3.06938e-06 0 -1.68969e-10 -3.06877e-06 0
-1.46879e-10 -3.06849e-06 0 -1.24706e-10 -3.06736e-06 0 -1.02485e-10 -3.06933e-06 0 -8.01601e-11
-3.06107e-06 0 -5.78909e-11 -3.08577e-06 0 -3.56045e-11 -2.99324e-06 0 -1.23154e-11 -3.23901e-06
0 -1.28968e-13 -2.82898e-06 0 
U 3 545 float
69.4 0 0 69.4 0 0 69.4 0 0 69.4001 0
0 69.4002 0 0 69.4002 0 0 69.4003 0 0
69.4004 0 0 69.4005 0 0 69.4006 0 0 69.4007
0 0 69.4008 0 0 69.401 0 0 69.4011 0
0 69.4012 0 0 69.4014 0 0 69.4015 0 0
69.4016 0 0 69.4018 0 0 69.402 0 0 69.4021
0 0 69.4023 0 0 69.4024 0 0 69.4026 0
0 69.4027 0 0 69.4029 0 0 69.403 0 0
69.4032 0 0 69.4034 0 0 69.4035 0 0 69.4037
0 0 69.4038 0 0 69.404 0 0 69.4041 0
0 69.4043 0 0 69.4044 0 0 69.4046 0 0
69.4047 0 0 69.4049 0 0 69.405 0 0 69.4051
0 0 69.4053 0 0 69.4054 0 0 69.4055 0
0 69.4057 0 0 69.4058 0 0 69.4059 0 0
69.4061 0 0 69.4062 0 0 69.4063 0 0 69.4064
0 0 69.4065 0 0 69.4066 0 0 69.4068 0
0 69.4069 0 0 69.407 0 0 69.4071 0 0
69.4072 0 0 69.4073 0 0 69.4074 0 0 69.4075
0 0 69.4076 0 0 69.4077 0 0 69.4078 0
0 69.4079 0 0 69.408 0 0 69.408 0 0
69.4081 0 0 69.4082 0 0 69.4083 0 0 69.4084
0 0 69.4084 0 0 69.4085 0 0 69.4086 0
0 69.4087 0 0 69.4087 0 0 69.4088 0 0
69.4089 0 0 69.409 0 0 69.409 0 0 69.4091
0 0 69.4092 0 0 69.4092 0 0 69.4093 0
0 69.4094 0 0 69.4095 0 0 69.4095 0 0
69.4096 0 0 69.4097 0 0 69.4097 0 0 69.4098
0 0 69.4099 0 0 69.41 0 0 69.41 0
0 69.4101 0 0 69.4102 0 0 69.4102 0 0
69.4103 0 0 69.4104 0 0 69.4104 0 0 69.4105
0 0 69.4105 0 0 69.4106 0 0 69.4107 0
0 69.4107 0 0 69.4108 0 0 69.4108 0 0
69.4109 0 0 69.411 0 0 69.411 0 0 69.4111
0 0 69.4111 0 0 69.4112 0 0 69.4113 0
0 69.4113 0 0 69.4114 0 0 69.4115 0 0
69.4115 0 0 69.4116 0 0 69.4116 0 0 69.4117
0 0 69.4118 0 0 69.4118 0 0 69.4119 0
0 69.412 0 0 69.412 0 0 69.4121 0 0
69.4122 0 0 69.4122 0 0 69.4123 0 0 69.4124
0 0 69.4124 0 0 69.4125 0 0 69.4126 0
0 69.4127 0 0 69.4127 0 0 69.4128 0 0
69.4129 0 0 69.4129 0 0 69.413 0 0 69.4131
0 0 69.4131 0 0 69.4132 0 0 69.4133 0
0 69.4134 0 0 69.4134 0 0 69.4135 0 0
69.4136 0 0 69.4137 0 0 69.4137 0 0 69.4138
0 0 69.4139 0 0 69.414 0 0 69.414 0
0 69.4141 0 0 69.4142 0 0 69.4143 0 0
69.4143 0 0 69.4144 0 0 69.4145 0 0 69.4146
0 0 69.4147 0 0 69.4147 0 0 69.4148 0
0 69.4149 0 0 69.415 0 0 69.4151 0 0
69.4151 0 0 69.4152 0 0 69.4153 0 0 69.4154
0 0 69.4155 0 0 69.4156 0 0 69.4156 0
0 69.4157 0 0 69.4158 0 0 69.4159 0 0
69.416 0 0 69.4161 0 0 69.4161 0 0 69.4162
0 0 69.4163 0 0 69.4164 0 0 69.4165 0
0 69.4166 0 0 69.4167 0 0 69.4167 0 0
69.4168 0 0 69.4169 0 0 69.417 0 0 69.4171
0 0 69.4172 0 0 69.4173 0 0 69.4174 0
0 69.4175 0 0 69.4176 0 0 69.4177 0 0
69.4177 0 0 69.4178 0 0 69.4179 0 0 69.418
0 0 69.4181 0 0 69.4182 0 0 69.4183 0
0 69.4184 0 0 69.4185 0 0 69.4186 0 0
69.4187 0 0 69.4188 0 0 69.4189 0 0 69.419
0 0 69.4191 0 0 69.4192 0 0 69.4193 0
0 69.4194 0 0 69.4195 0 0 69.4196 0 0
69.4197 0 0 69.4198 0 0 69.4199 0 0 69.42
0 0 69.4201 0 0 69.4202 0 0 69.4203 0
0 69.4204 0 0 69.4205 0 0 69.4206 0 0
69.4207 0 0 69.4209 0 0 69.421 0 0 69.4211
0 0 69.4212 0 0 69.4213 0 0 69.4214 0
0 69.4215 0 0 69.4216 0 0 69.4217 0 0
69.4218 0 0 69.4219 0 0 69.4221 0 0 69.4222
0 0 69.4223 0 0 69.4224 0 0 69.4225 0
0 69.4226 0 0 69.4227 0 0 69.4229 0 0
69.423 0 0 69.4231 0 0 69.4232 0 0 69.4233
0 0 69.4234 0 0 69.4236 0 0 69.4237 0
0 69.4238 0 0 69.4239 0 0 69.424 0 0
69.4242 0 0 69.4243 0 0 69.4244 0 0 69.4245
0 0 69.4247 0 0 69.4248 0 0 69.4249 0
0 69.425 0 0 69.4251 0 0 69.4253 0 0
69.4254 0 0 69.4255 0 0 69.4257 0 0 69.4258
0 0 69.4259 0 0 69.426 0 0 69.4261 0
0 69.4262 0 0 69.4264 0 0 69.4265 0 0
69.4266 0 0 69.4267 0 0 69.4269 0 0 69.427
0 0 69.4271 0 0 69.4273 0 0 69.4274 0
0 69.4275 0 0 69.4277 0 0 69.4278 0 0
69.4279 0 0 69.4281 0 0 69.4282 0 0 69.4284
0 0 69.4285 0 0 69.4287 0 0 69.4288 0
0 69.429 0 0 69.4291 0 0 69.4293 0 0
69.4295 0 0 69.4296 0 0 69.4298 0 0 69.4299
0 0 69.4301 0 0 69.4303 0 0 69.4305 0
0 69.4306 0 0 69.4308 0 0 69.431 0 0
69.4312 0 0 69.4314 0 0 69.4315 0 0 69.4317
0 0 69.4319 0 0 69.4321 0 0 69.4323 0
0 69.4325 0 0 69.4327 0 0 69.4329 0 0
69.4331 0 0 69.4333 0 0 69.4336 0 0 69.4338
0 0 69.434 0 0 69.4342 0 0 69.4344 0
0 69.4347 0 0 69.4349 0 0 69.4351 0 0
69.4354 0 0 69.4356 0 0 69.4358 0 0 69.4361
0 0 69.4363 0 0 69.4366 0 0 69.4368 0
0 69.4371 0 0 69.4374 0 0 69.4376 0 0
69.4379 0 0 69.4382 0 0 69.4384 0 0 69.4387
0 0 69.439 0 0 69.4393 0 0 69.4396 0
0 69.4399 0 0 69.4402 0 0 69.4405 0 0
69.4408 0 0 69.4411 0 0 69.4414 0 0 69.4417
0 0 69.442 0 0 69.4424 0 0 69.4427 0
0 69.443 0 0 69.4434 0 0 69.4437 0 0
69.444 0 0 69.4444 0 0 69.4447 0 0 69.4451
0 0 69.4455 0 0 69.4458 0 0 69.4462 0
0 69.4466 0 0 69.447 0 0 69.4474 0 0
69.4478 0 0 69.4482 0 0 69.4486 0 0 69.449
0 0 69.4494 0 0 69.4498 0 0 69.4502 0
0 69.4507 0 0 69.4511 0 0 69.4516 0 0
69.452 0 0 69.4525 0 0 69.4529 0 0 69.4534
0 0 69.4539 0 0 69.4543 0 0 69.4548 0
0 69.4553 0 0 69.4558 0 0 69.4563 0 0
69.4568 0 0 69.4573 0 0 69.4579 0 0 69.4584
0 0 69.4589 0 0 69.4595 0 0 69.46 0
0 69.4606 0 0 69.4611 0 0 69.4617 0 0
69.4623 0 0 69.4629 0 0 69.4634 0 0 69.464
0 0 69.4646 0 0 69.4653 0 0 69.4659 0
0 69.4665 0 0 69.4671 0 0 69.4678 0 0
69.4684 0 0 69.4691 0 0 69.4698 0 0 69.4704
0 0 69.4711 0 0 69.4718 0 0 69.4725 0
0 69.4732 0 0 69.4739 0 0 69.4747 0 0
69.4754 0 0 69.4761 0 0 69.4769 0 0 69.4776
0 0 69.4784 0 0 69.4792 0 0 69.48 0
0 69.4808 0 0 69.4816 0 0 69.4824 0 0
69.4832 0 0 69.4841 0 0 69.4849 0 0 69.4857
0 0 69.4866 0 0 69.4875 0 0 69.4884 0
0 69.4893 0 0 69.4902 0 0 69.4911 0 0
69.492 0 0 69.4929 0 0 69.4939 0 0 69.4948
0 0 69.4958 0 0 69.4968 0 0 69.4977 0
0 69.4987 0 0 69.4997 0 0 69.5008 0 0
69.5018 0 0 69.5028 0 0 69.5039 0 0 69.5051
0 0 69.5064 0 0 69.5077 0 0 69.509 0
0 69.5103 0 0 69.5116 0 0 69.5129 0 0
69.5142 0 0 69.5155 0 0 69.5168 0 0 69.5181
0 0 69.5194 0 0 69.5207 0 0 69.522 0
0 69.5233 0 0 69.5246 0 0 69.5259 0 0
69.5272 0 0 69.5285 0 0 69.5297 0 0 69.531
0 0 69.5323 0 0 69.5336 0 0 69.5349 0
0 69.5362 0 0 69.5375 0 0 69.5388 0 0
69.54 0 0 69.5413 0 0 69.5426 0 0 69.5439
0 0 69.5452 0 0 69.5464 0 0 69.5477 0
0 69.549 0 0 69.5503 0 0 69.5515 0 0
69.5528 0 0 69.5541 0 0 69.5554 0 0 69.5566
0 0 69.5579 0 0 69.5592 0 0 69.5604 0
0 69.5617 0 0 69.5629 0 0 69.5642 0 0
69.5655 0 0 69.5667 0 0 69.568 0 0 69.5692
0 0 69.5705 0 0 69.5718 0 0 69.573 0
0 69.5743 0 0 69.5755 0 0 69.5768 0 0
69.578 0 0 69.5793 0 0 69.5805 0 0 69.5818
0 0 69.583 0 0 69.5843 0 0 69.5855 0
0 69.5867 0 0 69.588 0 0 69.5892 0 0
69.5905 0 0 69.5917 0 0 69.593 0 0 69.5942
0 0 69.5954 0 0 69.5967 0 0 69.5979 0
0 69.5992 0 0 69.6004 0 0 69.6016 0 0
69.6029 0 0 69.6041 0 0 69.6053 0 0 69.6066
0 0 69.6078 0 0 69.609 0 0 69.6103 0
0 69.6115 0 0 69.6127 0 0 69.614 0 0
69.6152 0 0 69.6164 0 0 69.6177 0 0 69.6189
0 0 69.6201 0 0 69.6214 0 0 69.6224 0
0 69.6243 0 0 
C 3 545 float
-0.328655 1 0.05 -0.319422 1 0.05 -0.310433 1 0.05 -0.301681 1
0.05 -0.293159 1 0.05 -0.284862 1 0.05 -0.276784 1 0.05
-0.268919 1 0.05 -0.261261 1 0.05 -0.253805 1 0.05 -0.246546
1 0.05 -0.239478 1 0.05 -0.232596 1 0.05 -0.225896 1
0.05 -0.219373 1 0.05 -0.213021 1 0.05 -0.206837 1 0.05
-0.200816 1 0.05 -0.194954 1 0.05 -0.189246 1 0.05 -0.183689
1 0.05 -0.178279 1 0.05 -0.173011 1 0.05 -0.167882 1
0.05 -0.162888 1 0.05 -0.158026 1 0.05 -0.153292 1 0.05
-0.148682 1 0.05 -0.144195 1 0.05 -0.139825 1 0.05 -0.135571
1 0.05 -0.131429 1 0.05 -0.127397 1 0.05 -0.12347 1
0.05 -0.119647 1 0.05 -0.115925 1 0.05 -0.112301 1 0.05
-0.108773 1 0.05 -0.105338 1 0.05 -0.101993 1 0.05 -0.0987361
1 0.05 -0.0955654 1 0.05 -0.0924782 1 0.05 -0.0894725 1
0.05 -0.086546 1 0.05 -0.0836967 1 0.05 -0.0809225 1 0.05
-0.0782214 1 0.05 -0.0755915 1 0.05 -0.073031 1 0.05 -0.070538
1 0.05 -0.0681108 1 0.05 -0.0657475 1 0.05 -0.0634465 1
0.05 -0.0612063 1 0.05 -0.059025 1 0.05 -0.0569013 1 0.05
-0.0548336 1 0.05 -0.0528204 1 0.05 -0.0508603 1 0.05 -0.0489518
1 0.05 -0.0470937 1 0.05 -0.0452846 1 0.05 -0.0435232 1
0.05 -0.0418082 1 0.05 -0.0401384 1 0.05 -0.0385127 1 0.05
-0.0369298 1 0.05 -0.0353886 1 0.05 -0.0338881 1 0.05 -0.0324272
1 0.05 -0.0310047 1 0.05 -0.0296379 1 0.05 -0.0283107 1
0.05 -0.0269895 1 0.05 -0.0256744 1 0.05 -0.0243653 1 0.05
-0.0230622 1 0.05 -0.021765 1 0.05 -0.0204738 1 0.05 -0.0191885
1 0.05 -0.017909 1 0.05 -0.0166354 1 0.05 -0.0153676 1
0.05 -0.0141056 1 0.05 -0.0128494 1 0.05 -0.0115989 1 0.05
-0.0103541 1 0.05 -0.00911506 1 0.05 -0.00788164 1 0.05 -0.00665386
1 0.05 -0.00543169 1 0.05 -0.00421511 1 0.05 -0.00300408 1
0.05 -0.00179859 1 0.05 -0.000598615 1 0.05 0.000485708 1 0.05
0.00145827 1 0.05 0.00243313 1 0.05 0.00341029 1 0.05 0.00438975
1 0.05 0.00537153 1 0.05 0.00635563 1 0.05 0.00734204 1
0.05 0.00833079 1 0.05 0.00932187 1 0.05 0.0103153 1 0.05
0.011311 1 0.05 0.0123092 1 0.05 0.0133096 1 0.05 0.0143125
1 0.05 0.0153177 1 0.05 0.0163252 1 0.05 0.0173352 1
0.05 0.0183475 1 0.05 0.0193622 1 0.05 0.0203793 1 0.05
0.0213988 1 0.05 0.0224208 1 0.05 0.0234451 1 0.05 0.0244718
1 0.05 0.025501 1 0.05 0.0265326 1 0.05 0.0275667 1
0.05 0.0286031 1 0.05 0.0296421 1 0.05 0.0306834 1 0.05
0.0317273 1 0.05 0.0327736 1 0.05 0.0338223 1 0.05 0.0348736
1 0.05 0.0359273 1 0.05 0.0369835 1 0.05 0.0380422 1
0.05 0.0391034 1 0.05 0.0401671 1 0.05 0.0412333 1 0.05
0.0423021 1 0.05 0.0433733 1 0.05 0.0444471 1 0.05 0.0455234
1 0.05 0.0466023 1 0.05 0.0476837 1 0.05 0.0487676 1
0.05 0.0498542 1 0.05 0.0509432 1 0.05 0.0520349 1 0.05
0.0531291 1 0.05 0.0542259 1 0.05 0.0553253 1 0.05 0.0564273
1 0.05 0.0575319 1 0.05 0.0586391 1 0.05 0.0597489 1
0.05 0.0608614 1 0.05 0.0619764 1 0.05 0.0630941 1 0.05
0.0642144 1 0.05 0.0653374 1 0.05 0.066463 1 0.05 0.0675913
1 0.05 0.0687222 1 0.05 0.0698559 1 0.05 0.0709921 1
0.05 0.0721311 1 0.05 0.0732728 1 0.05 0.0744171 1 0.05
0.0755642 1 0.05 0.0767139 1 0.05 0.0778664 1 0.05 0.0790216
1 0.05 0.0801795 1 0.05 0.0813402 1 0.05 0.0825035 1
0.05 0.0836697 1 0.05 0.0848386 1 0.05 0.0860102 1 0.05
0.0871846 1 0.05 0.0883618 1 0.05 0.0895418 1 0.05 0.0907245
1 0.05 0.0919101 1 0.05 0.0930984 1 0.05 0.0942895 1
0.05 0.0954835 1 0.05 0.0966803 1 0.05 0.0978799 1 0.05
0.0990823 1 0.05 0.100288 1 0.05 0.101496 1 0.05 0.102707
1 0.05 0.10392 1 0.05 0.105137 1 0.05 0.106357 1
0.05 0.107579 1 0.05 0.108804 1 0.05 0.110033 1 0.05
0.111264 1 0.05 0.112498 1 0.05 0.113735 1 0.05 0.114975
1 0.05 0.116217 1 0.05 0.117463 1 0.05 0.118712 1
0.05 0.119963 1 0.05 0.121218 1 0.05 0.122475 1 0.05
0.123736 1 0.05 0.124999 1 0.05 0.126266 1 0.05 0.127535
1 0.05 0.128808 1 0.05 0.130083 1 0.05 0.131361 1
0.05 0.132643 1 0.05 0.133927 1 0.05 0.135215 1 0.05
0.136505 1 0.05 0.137799 1 0.05 0.139096 1 0.05 0.140395
1 0.05 0.141698 1 0.05 0.143004 1 0.05 0.144313 1
0.05 0.145625 1 0.05 0.14694 1 0.05 0.148258 1 0.05
0.149579 1 0.05 0.150904 1 0.05 0.152231 1 0.05 0.153562
1 0.05 0.154896 1 0.05 0.156233 1 0.05 0.157573 1
0.05 0.158916 1 0.05 0.160263 1 0.05 0.161613 1 0.05
0.162965 1 0.05 0.164321 1 0.05 0.165681 1 0.05 0.167043
1 0.05 0.168409 1 0.05 0.169778 1 0.05 0.17115 1
0.05 0.172525 1 0.05 0.173904 1 0.05 0.175286 1 0.05
0.176671 1 0.05 0.178059 1 0.05 0.179451 1 0.05 0.180846
1 0.05 0.182244 1 0.05 0.183646 1 0.05 0.18505 1
0.05 0.186459 1 0.05 0.18787 1 0.05 0.189285 1 0.05
0.190703 1 0.05 0.192124 1 0.05 0.193549 1 0.05 0.194978
1 0.05 0.196409 1 0.05 0.197844 1 0.05 0.199282 1
0.05 0.200724 1 0.05 0.202169 1 0.05 0.203618 1 0.05
0.20507 1 0.05 0.206525 1 0.05 0.207903 1 0.05 0.209207
1 0.05 0.210526 1 0.05 0.211859 1 0.05 0.213207 1
0.05 0.214569 1 0.05 0.215947 1 0.05 0.217339 1 0.05
0.218746 1 0.05 0.220168 1 0.05 0.221606 1 0.05 0.22306
1 0.05 0.224529 1 0.05 0.226015 1 0.05 0.227516 1
0.05 0.229034 1 0.05 0.230569 1 0.05 0.23212 1 0.05
0.233687 1 0.05 0.235272 1 0.05 0.236875 1 0.05 0.238494
1 0.05 0.240131 1 0.05 0.241786 1 0.05 0.243459 1
0.05 0.24515 1 0.05 0.24686 1 0.05 0.248588 1 0.05
0.250335 1 0.05 0.252101 1 0.05 0.253886 1 0.05 0.25569
1 0.05 0.257514 1 0.05 0.259358 1 0.05 0.261222 1
0.05 0.263106 1 0.05 0.265011 1 0.05 0.266937 1 0.05
0.268883 1 0.05 0.27085 1 0.05 0.272839 1 0.05 0.27485
1 0.05 0.276882 1 0.05 0.278936 1 0.05 0.281013 1
0.05 0.283113 1 0.05 0.285235 1 0.05 0.28738 1 0.05
0.289548 1 0.05 0.291741 1 0.05 0.293956 1 0.05 0.296196
1 0.05 0.298461 1 0.05 0.30075 1 0.05 0.303064 1
0.05 0.305403 1 0.05 0.307767 1 0.05 0.310157 1 0.05
0.312573 1 0.05 0.315016 1 0.05 0.317485 1 0.05 0.31998
1 0.05 0.322503 1 0.05 0.325053 1 0.05 0.327632 1
0.05 0.330238 1 0.05 0.332872 1 0.05 0.335535 1 0.05
0.338227 1 0.05 0.340948 1 0.05 0.343699 1 0.05 0.346479
1 0.05 0.34929 1 0.05 0.352132 1 0.05 0.355004 1
0.05 0.357908 1 0.05 0.360843 1 0.05 0.36381 1 0.05
0.366809 1 0.05 0.369841 1 0.05 0.372906 1 0.05 0.376004
1 0.05 0.379136 1 0.05 0.382302 1 0.05 0.385502 1
0.05 0.388737 1 0.05 0.392007 1 0.05 0.395313 1 0.05
0.398654 1 0.05 0.402032 1 0.05 0.405447 1 0.05 0.408899
1 0.05 0.412388 1 0.05 0.415916 1 0.05 0.419481 1
0.05 0.423086 1 0.05 0.426729 1 0.05 0.430412 1 0.05
0.434136 1 0.05 0.437899 1 0.05 0.441704 1 0.05 0.44555
1 0.05 0.449437 1 0.05 0.453367 1 0.05 0.45734 1
0.05 0.461356 1 0.05 0.465415 1 0.05 0.469519 1 0.05
0.473667 1 0.05 0.477861 1 0.05 0.4821 1 0.05 0.486385
1 0.05 0.490716 1 0.05 0.495095 1 0.05 0.499521 1
0.05 0.503995 1 0.05 0.508518 1 0.05 0.51309 1 0.05
0.517712 1 0.05 0.522384 1 0.05 0.527107 1 0.05 0.531881
1 0.05 0.536707 1 0.05 0.541586 1 0.05 0.546518 1
0.05 0.551503 1 0.05 0.556542 1 0.05 0.561636 1 0.05
0.566786 1 0.05 0.571991 1 0.05 0.577253 1 0.05 0.582572
1 0.05 0.587949 1 0.05 0.593385 1 0.05 0.59888 1
0.05 0.604434 1 0.05 0.610048 1 0.05 0.615724 1 0.05
0.621462 1 0.05 0.627261 1 0.05 0.633124 1 0.05 0.639051
1 0.05 0.645042 1 0.05 0.651098 1 0.05 0.657219 1
0.05 0.663408 1 0.05 0.669664 1 0.05 0.675987 1 0.05
0.68238 1 0.05 0.688842 1 0.05 0.695374 1 0.05 0.701977
1 0.05 0.708652 1 0.05 0.715399 1 0.05 0.72222 1
0.05 0.729115 1 0.05 0.736085 1 0.05 0.74313 1 0.05
0.750252 1 0.05 0.757452 1 0.05 0.76473 1 0.05 0.772087
1 0.05 0.779524 1 0.05 0.787042 1 0.05 0.794641 1
0.05 0.802323 1 0.05 0.810089 1 0.05 0.817939 1 0.05
0.825874 1 0.05 0.833896 1 0.05 0.842004 1 0.05 0.850201
1 0.05 0.858487 1 0.05 0.866863 1 0.05 0.87533 1
0.05 0.883889 1 0.05 0.892542 1 0.05 0.901288 1 0.05
0.910129 1 0.05 0.919066 1 0.05 0.928101 1 0.05 0.93826
1 0.05 0.949495 1 0.05 0.960731 1 0.05 0.971966 1
0.05 0.983202 1 0.05 0.994437 1 0.05 1.00567 1 0.05
1.01691 1 0.05 1.02814 1 0.05 1.03938 1 0.05 1.05061
1 0.05 1.06185 1 0.05 1.07308 1 0.05 1.08432 1
0.05 1.09555 1 0.05 1.10679 1 0.05 1.11803 1 0.05
1.12926 1 0.05 1.1405 1 0.05 1.15173 1 0.05 1.16297
1 0.05 1.1742 1 0.05 1.18544 1 0.05 1.19667 1
0.05 1.20791 1 0.05 1.21914 1 0.05 1.23038 1 0.05
1.24161 1 0.05 1.25285 1 0.05 1.26409 1 0.05 1.27532
1 0.05 1.28656 1 0.05 1.29779 1 0.05 1.30903 1
0.05 1.32026 1 0.05 1.3315 1 0.05 1.34273 1 0.05
1.35397 1 0.05 1.3652 1 0.05 1.37644 1 0.05 1.38767
1 0.05 1.39891 1 0.05 1.41014 1 0.05 1.42138 1
0.05 1.43262 1 0.05 1.44385 1 0.05 1.45509 1 0.05
1.46632 1 0.05 1.47756 1 0.05 1.48879 1 0.05 1.50003
1 0.05 1.51126 1 0.05 1.5225 1 0.05 1.53373 1
0.05 1.54497 1 0.05 1.5562 1 0.05 1.56744 1 0.05
1.57867 1 0.05 1.58991 1 0.05 1.60115 1 0.05 1.61238
1 0.05 1.62362 1 0.05 1.63485 1 0.05 1.64609 1
0.05 1.65732 1 0.05 1.66856 1 0.05 1.67979 1 0.05
1.69103 1 0.05 1.70226 1 0.05 1.7135 1 0.05 1.72473
1 0.05 1.73597 1 0.05 1.7472 1 0.05 1.75844 1
0.05 1.76968 1 0.05 1.78091 1 0.05 1.79215 1 0.05
1.80338 1 0.05 1.81462 1 0.05 1.82585 1 0.05 1.83709
1 0.05 1.84832 1 0.05 1.85956 1 0.05 1.87079 1
0.05 1.88203 1 0.05 1.89326 1 0.05 1.9045 1 0.05
1.91573 1 0.05 1.92697 1 0.05 1.93821 1 0.05 1.94944
1 0.05 1.96068 1 0.05 1.97191 1 0.05 1.98315 1
0.05 1.99438 1 0.05 
POINT_DATA  1092
FIELD attributes 11
Cy 1 1092 float
1 1 1 1 1 1 1 1 1 1 1
1 1 1 1 1 1 1 1 1 1
1 1 1 1 1 1 1 1 1 1
1 1 1 1 1 1 1 1 1 1
1 1 1 1 1 1 1 1 1 1
1 1 1 1 1 1 1 1 1 1
1 1 1 1 1 1 1 1 1 1
1 1 1 1 1 1 1 1 1 1
1 1 1 1 1 1 1 1 1 1
1 1 1 1 1 1 1 1 1 1
1 1 1 1 1 1 1 1 1 1
1 1 1 1 1 1 1 1 1 1
1 1 1 1 1 1 1 1 1 1
1 1 1 1 1 1 1 1 1 1
1 1 1 1 1 1 1 1 1 1
1 1 1 1 1 1 1 1 1 1
1 1 1 1 1 1 1 1 1 1
1 1 1 1 1 1 1 1 1 1
1 1 1 1 1 1 1 1 1 1
1 1 1 1 1 1 1 1 1 1
1 1 1 1 1 1 1 1 1 1
1 1 1 1 1 1 1 1 1 1
1 1 1 1 1 1 1 1 1 1
1 1 1 1 1 1 1 1 1 1
1 1 1 1 1 1 1 1 1 1
1 1 1 1 1 1 1 1 1 1
1 1 1 1 1 1 1 1 1 1
1 1 1 1 1 1 1 1 1 1
1 1 1 1 1 1 1 1 1 1
1 1 1 1 1 1 1 1 1 1
1 1 1 1 1 1 1 1 1 1
1 1 1 1 1 1 1 1 1 1
1 1 1 1 1 1 1 1 1 1
1 1 1 1 1 1 1 1 1 1
1 1 1 1 1 1 1 1 1 1
1 1 1 1 1 1 1 1 1 1
1 1 1 1 1 1 1 1 1 1
1 1 1 1 1 1 1 1 1 1
1 1 1 1 1 1 1 1 1 1
1 1 1 1 1 1 1 1 1 1
1 1 1 1 1 1 1 1 1 1
1 1 1 1 1 1 1 1 1 1
1 1 1 1 1 1 1 1 1 1
1 1 1 1 1 1 1 1 1 1
1 1 1 1 1 1 1 1 1 1
1 1 1 1 1 1 1 1 1 1
1 1 1 1 1 1 1 1 1 1
1 1 1 1 1 1 1 1 1 1
1 1 1 1 1 1 1 1 1 1
1 1 1 1 1 1 1 1 1 1
1 1 1 1 1 1 1 1 1 1
1 1 1 1 1 1 1 1 1 1
1 1 1 1 1 1 1 1 1 1
1 1 1 1 1 1 1 1 1 1
1 1 1 1 1 1 1 1 1 1
1 1 1 1 1 1 1 1 1 1
1 1 1 1 1 1 1 1 1 1
1 1 1 1 1 1 1 1 1 1
1 1 1 1 1 1 1 1 1 1
1 1 1 1 1 1 1 1 1 1
1 1 1 1 1 1 1 1 1 1
1 1 1 1 1 1 1 1 1 1
1 1 1 1 1 1 1 1 1 1
1 1 1 1 1 1 1 1 1 1
1 1 1 1 1 1 1 1 1 1
1 1 1 1 1 1 1 1 1 1
1 1 1 1 1 1 1 1 1 1
1 1 1 1 1 1 1 1 1 1
1 1 1 1 1 1 1 1 1 1
1 1 1 1 1 1 1 1 1 1
1 1 1 1 1 1 1 1 1 1
1 1 1 1 1 1 1 1 1 1
1 1 1 1 1 1 1 1 1 1
1 1 1 1 1 1 1 1 1 1
1 1 1 1 1 1 1 1 1 1
1 1 1 1 1 1 1 1 1 1
1 1 1 1 1 1 1 1 1 1
1 1 1 1 1 1 1 1 1 1
1 1 1 1 1 1 1 1 1 1
1 1 1 1 1 1 1 1 1 1
1 1 1 1 1 1 1 1 1 1
1 1 1 1 1 1 1 1 1 1
1 1 1 1 1 1 1 1 1 1
1 1 1 1 1 1 1 1 1 1
1 1 1 1 1 1 1 1 1 1
1 1 1 1 1 1 1 1 1 1
1 1 1 1 1 1 1 1 1 1
1 1 1 1 1 1 1 1 1 1
1 1 1 1 1 1 1 1 1 1
1 1 1 1 1 1 1 1 1 1
1 1 1 1 1 1 1 1 1 1
1 1 1 1 1 1 1 1 1 1
1 1 1 1 1 1 1 1 1 1
1 1 1 1 1 1 1 1 1 1
1 1 1 1 1 1 1 1 1 1
1 1 1 1 1 1 1 1 1 1
1 1 1 1 1 1 1 1 1 1
1 1 1 1 1 1 1 1 1 1
1 1 1 1 1 1 1 1 1 1
1 1 1 1 1 1 1 1 1 1
1 1 1 1 1 1 1 1 1 1
1 1 1 1 1 1 1 1 1 1
1 1 1 1 1 1 1 1 1 1
1 1 1 1 1 1 1 1 1 1
1 1 1 1 1 1 1 1 1 1
1 1 1 1 1 1 1 1 1 1
1 1 1 1 1 1 1 1 1 1
1 1 1 1 1 1 1 1 1 1
1 1 1 1 1 1 1 1 1 1
1 
nut 1 1092 float
1.23957e-07 1.23957e-07 1.23496e-07 1.23496e-07 1.22625e-07 1.22625e-07 1.21843e-07 1.21843e-07 1.21137e-07 1.21137e-07 1.20495e-07
1.20495e-07 1.19908e-07 1.19908e-07 1.19368e-07 1.19368e-07 1.18871e-07 1.18871e-07 1.1841e-07 1.1841e-07 1.17981e-07
1.17981e-07 1.17582e-07 1.17582e-07 1.17209e-07 1.17209e-07 1.16859e-07 1.16859e-07 1.1653e-07 1.1653e-07 1.16221e-07
1.16221e-07 1.15929e-07 1.15929e-07 1.15654e-07 1.15654e-07 1.15394e-07 1.15394e-07 1.15147e-07 1.15147e-07 1.14913e-07
1.14913e-07 1.1469e-07 1.1469e-07 1.14479e-07 1.14479e-07 1.14278e-07 1.14278e-07 1.14086e-07 1.14086e-07 1.13903e-07
1.13903e-07 1.13728e-07 1.13728e-07 1.13561e-07 1.13561e-07 1.13402e-07 1.13402e-07 1.13249e-07 1.13249e-07 1.13102e-07
1.13102e-07 1.12962e-07 1.12962e-07 1.12828e-07 1.12828e-07 1.12699e-07 1.12699e-07 1.12575e-07 1.12575e-07 1.12456e-07
1.12456e-07 1.12341e-07 1.12341e-07 1.12231e-07 1.12231e-07 1.12126e-07 1.12126e-07 1.12024e-07 1.12024e-07 1.11926e-07
1.11926e-07 1.11831e-07 1.11831e-07 1.1174e-07 1.1174e-07 1.11652e-07 1.11652e-07 1.11568e-07 1.11568e-07 1.11486e-07
1.11486e-07 1.11407e-07 1.11407e-07 1.11331e-07 1.11331e-07 1.11258e-07 1.11258e-07 1.11187e-07 1.11187e-07 1.11119e-07
1.11119e-07 1.11052e-07 1.11052e-07 1.10989e-07 1.10989e-07 1.10927e-07 1.10927e-07 1.10867e-07 1.10867e-07 1.10809e-07
1.10809e-07 1.10753e-07 1.10753e-07 1.10699e-07 1.10699e-07 1.10647e-07 1.10647e-07 1.10596e-07 1.10596e-07 1.10547e-07
1.10547e-07 1.10499e-07 1.10499e-07 1.10453e-07 1.10453e-07 1.10409e-07 1.10409e-07 1.10365e-07 1.10365e-07 1.10324e-07
1.10324e-07 1.10283e-07 1.10283e-07 1.10244e-07 1.10244e-07 1.10206e-07 1.10206e-07 1.10169e-07 1.10169e-07 1.10133e-07
1.10133e-07 1.10098e-07 1.10098e-07 1.10065e-07 1.10065e-07 1.10032e-07 1.10032e-07 1.10001e-07 1.10001e-07 1.09969e-07
1.09969e-07 1.09938e-07 1.09938e-07 1.09908e-07 1.09908e-07 1.09877e-07 1.09877e-07 1.09847e-07 1.09847e-07 1.09817e-07
1.09817e-07 1.09787e-07 1.09787e-07 1.09757e-07 1.09757e-07 1.09728e-07 1.09728e-07 1.09699e-07 1.09699e-07 1.0967e-07
1.0967e-07 1.09641e-07 1.09641e-07 1.09613e-07 1.09613e-07 1.09584e-07 1.09584e-07 1.09556e-07 1.09556e-07 1.09529e-07
1.09529e-07 1.09501e-07 1.09501e-07 1.09474e-07 1.09474e-07 1.09447e-07 1.09447e-07 1.0942e-07 1.0942e-07 1.09393e-07
1.09393e-07 1.09368e-07 1.09368e-07 1.09345e-07 1.09345e-07 1.09323e-07 1.09323e-07 1.09302e-07 1.09302e-07 1.0928e-07
1.0928e-07 1.09259e-07 1.09259e-07 1.09238e-07 1.09238e-07 1.09216e-07 1.09216e-07 1.09195e-07 1.09195e-07 1.09173e-07
1.09173e-07 1.09152e-07 1.09152e-07 1.0913e-07 1.0913e-07 1.09109e-07 1.09109e-07 1.09087e-07 1.09087e-07 1.09066e-07
1.09066e-07 1.09044e-07 1.09044e-07 1.09023e-07 1.09023e-07 1.09002e-07 1.09002e-07 1.0898e-07 1.0898e-07 1.08959e-07
1.08959e-07 1.08937e-07 1.08937e-07 1.08916e-07 1.08916e-07 1.08894e-07 1.08894e-07 1.08873e-07 1.08873e-07 1.08852e-07
1.08852e-07 1.0883e-07 1.0883e-07 1.08809e-07 1.08809e-07 1.08787e-07 1.08787e-07 1.08766e-07 1.08766e-07 1.08744e-07
1.08744e-07 1.08723e-07 1.08723e-07 1.08702e-07 1.08702e-07 1.0868e-07 1.0868e-07 1.08659e-07 1.08659e-07 1.08637e-07
1.08637e-07 1.08616e-07 1.08616e-07 1.08595e-07 1.08595e-07 1.08573e-07 1.08573e-07 1.08552e-07 1.08552e-07 1.0853e-07
1.0853e-07 1.08509e-07 1.08509e-07 1.08488e-07 1.08488e-07 1.08466e-07 1.08466e-07 1.08445e-07 1.08445e-07 1.08424e-07
1.08424e-07 1.08402e-07 1.08402e-07 1.08381e-07 1.08381e-07 1.08359e-07 1.08359e-07 1.08338e-07 1.08338e-07 1.08317e-07
1.08317e-07 1.08295e-07 1.08295e-07 1.08274e-07 1.08274e-07 1.08253e-07 1.08253e-07 1.08231e-07 1.08231e-07 1.0821e-07
1.0821e-07 1.08188e-07 1.08188e-07 1.08167e-07 1.08167e-07 1.08146e-07 1.08146e-07 1.08124e-07 1.08124e-07 1.08103e-07
1.08103e-07 1.08082e-07 1.08082e-07 1.0806e-07 1.0806e-07 1.08039e-07 1.08039e-07 1.08018e-07 1.08018e-07 1.07996e-07
1.07996e-07 1.07975e-07 1.07975e-07 1.07954e-07 1.07954e-07 1.07932e-07 1.07932e-07 1.07911e-07 1.07911e-07 1.0789e-07
1.0789e-07 1.07868e-07 1.07868e-07 1.07847e-07 1.07847e-07 1.07826e-07 1.07826e-07 1.07805e-07 1.07805e-07 1.07783e-07
1.07783e-07 1.07762e-07 1.07762e-07 1.07741e-07 1.07741e-07 1.07719e-07 1.07719e-07 1.07698e-07 1.07698e-07 1.07677e-07
1.07677e-07 1.07655e-07 1.07655e-07 1.07634e-07 1.07634e-07 1.07613e-07 1.07613e-07 1.07592e-07 1.07592e-07 1.0757e-07
1.0757e-07 1.07549e-07 1.07549e-07 1.07528e-07 1.07528e-07 1.07506e-07 1.07506e-07 1.07485e-07 1.07485e-07 1.07464e-07
1.07464e-07 1.07443e-07 1.07443e-07 1.07421e-07 1.07421e-07 1.074e-07 1.074e-07 1.07379e-07 1.07379e-07 1.07358e-07
1.07358e-07 1.07336e-07 1.07336e-07 1.07315e-07 1.07315e-07 1.07294e-07 1.07294e-07 1.07273e-07 1.07273e-07 1.07251e-07
1.07251e-07 1.0723e-07 1.0723e-07 1.07209e-07 1.07209e-07 1.07188e-07 1.07188e-07 1.07166e-07 1.07166e-07 1.07145e-07
1.07145e-07 1.07124e-07 1.07124e-07 1.07103e-07 1.07103e-07 1.07081e-07 1.07081e-07 1.0706e-07 1.0706e-07 1.07039e-07
1.07039e-07 1.07018e-07 1.07018e-07 1.06997e-07 1.06997e-07 1.06975e-07 1.06975e-07 1.06954e-07 1.06954e-07 1.06933e-07
1.06933e-07 1.06912e-07 1.06912e-07 1.0689e-07 1.0689e-07 1.06869e-07 1.06869e-07 1.06848e-07 1.06848e-07 1.06827e-07
1.06827e-07 1.06806e-07 1.06806e-07 1.06785e-07 1.06785e-07 1.06763e-07 1.06763e-07 1.06742e-07 1.06742e-07 1.06721e-07
1.06721e-07 1.067e-07 1.067e-07 1.06679e-07 1.06679e-07 1.06657e-07 1.06657e-07 1.06636e-07 1.06636e-07 1.06615e-07
1.06615e-07 1.06594e-07 1.06594e-07 1.06573e-07 1.06573e-07 1.06552e-07 1.06552e-07 1.0653e-07 1.0653e-07 1.06509e-07
1.06509e-07 1.06488e-07 1.06488e-07 1.06467e-07 1.06467e-07 1.06446e-07 1.06446e-07 1.06425e-07 1.06425e-07 1.06404e-07
1.06404e-07 1.06382e-07 1.06382e-07 1.06361e-07 1.06361e-07 1.0634e-07 1.0634e-07 1.06319e-07 1.06319e-07 1.06298e-07
1.06298e-07 1.06277e-07 1.06277e-07 1.06256e-07 1.06256e-07 1.06235e-07 1.06235e-07 1.06213e-07 1.06213e-07 1.06192e-07
1.06192e-07 1.06171e-07 1.06171e-07 1.0615e-07 1.0615e-07 1.06129e-07 1.06129e-07 1.06108e-07 1.06108e-07 1.06087e-07
1.06087e-07 1.06066e-07 1.06066e-07 1.06045e-07 1.06045e-07 1.06023e-07 1.06023e-07 1.06002e-07 1.06002e-07 1.05981e-07
1.05981e-07 1.0596e-07 1.0596e-07 1.05939e-07 1.05939e-07 1.05918e-07 1.05918e-07 1.05897e-07 1.05897e-07 1.05876e-07
1.05876e-07 1.05855e-07 1.05855e-07 1.05834e-07 1.05834e-07 1.05813e-07 1.05813e-07 1.05792e-07 1.05792e-07 1.05771e-07
1.05771e-07 1.0575e-07 1.0575e-07 1.05728e-07 1.05728e-07 1.05707e-07 1.05707e-07 1.05687e-07 1.05687e-07 1.05668e-07
1.05668e-07 1.05649e-07 1.05649e-07 1.0563e-07 1.0563e-07 1.05611e-07 1.05611e-07 1.05591e-07 1.05591e-07 1.05572e-07
1.05572e-07 1.05552e-07 1.05552e-07 1.05532e-07 1.05532e-07 1.05512e-07 1.05512e-07 1.05492e-07 1.05492e-07 1.05472e-07
1.05472e-07 1.05451e-07 1.05451e-07 1.0543e-07 1.0543e-07 1.05409e-07 1.05409e-07 1.05388e-07 1.05388e-07 1.05367e-07
1.05367e-07 1.05346e-07 1.05346e-07 1.05324e-07 1.05324e-07 1.05302e-07 1.05302e-07 1.0528e-07 1.0528e-07 1.05258e-07
1.05258e-07 1.05236e-07 1.05236e-07 1.05214e-07 1.05214e-07 1.05191e-07 1.05191e-07 1.05168e-07 1.05168e-07 1.05145e-07
1.05145e-07 1.05122e-07 1.05122e-07 1.05098e-07 1.05098e-07 1.05075e-07 1.05075e-07 1.05051e-07 1.05051e-07 1.05027e-07
1.05027e-07 1.05003e-07 1.05003e-07 1.04978e-07 1.04978e-07 1.04954e-07 1.04954e-07 1.04929e-07 1.04929e-07 1.04904e-07
1.04904e-07 1.04879e-07 1.04879e-07 1.04854e-07 1.04854e-07 1.04828e-07 1.04828e-07 1.04802e-07 1.04802e-07 1.04777e-07
1.04777e-07 1.0475e-07 1.0475e-07 1.04724e-07 1.04724e-07 1.04698e-07 1.04698e-07 1.04671e-07 1.04671e-07 1.04644e-07
1.04644e-07 1.04617e-07 1.04617e-07 1.04589e-07 1.04589e-07 1.04562e-07 1.04562e-07 1.04534e-07 1.04534e-07 1.04506e-07
1.04506e-07 1.04478e-07 1.04478e-07 1.04449e-07 1.04449e-07 1.04421e-07 1.04421e-07 1.04392e-07 1.04392e-07 1.04363e-07
1.04363e-07 1.04334e-07 1.04334e-07 1.04304e-07 1.04304e-07 1.04275e-07 1.04275e-07 1.04245e-07 1.04245e-07 1.04215e-07
1.04215e-07 1.04184e-07 1.04184e-07 1.04154e-07 1.04154e-07 1.04123e-07 1.04123e-07 1.04092e-07 1.04092e-07 1.04061e-07
1.04061e-07 1.04029e-07 1.04029e-07 1.03998e-07 1.03998e-07 1.03966e-07 1.03966e-07 1.03934e-07 1.03934e-07 1.03901e-07
1.03901e-07 1.03869e-07 1.03869e-07 1.03836e-07 1.03836e-07 1.03803e-07 1.03803e-07 1.0377e-07 1.0377e-07 1.03737e-07
1.03737e-07 1.03703e-07 1.03703e-07 1.03669e-07 1.03669e-07 1.03635e-07 1.03635e-07 1.036e-07 1.036e-07 1.03566e-07
1.03566e-07 1.03531e-07 1.03531e-07 1.03496e-07 1.03496e-07 1.03461e-07 1.03461e-07 1.03425e-07 1.03425e-07 1.0339e-07
1.0339e-07 1.03354e-07 1.03354e-07 1.03317e-07 1.03317e-07 1.03281e-07 1.03281e-07 1.03244e-07 1.03244e-07 1.03207e-07
1.03207e-07 1.0317e-07 1.0317e-07 1.03133e-07 1.03133e-07 1.03095e-07 1.03095e-07 1.03057e-07 1.03057e-07 1.03019e-07
1.03019e-07 1.02981e-07 1.02981e-07 1.02943e-07 1.02943e-07 1.02904e-07 1.02904e-07 1.02865e-07 1.02865e-07 1.02826e-07
1.02826e-07 1.02786e-07 1.02786e-07 1.02746e-07 1.02746e-07 1.02706e-07 1.02706e-07 1.02666e-07 1.02666e-07 1.02626e-07
1.02626e-07 1.02585e-07 1.02585e-07 1.02544e-07 1.02544e-07 1.02503e-07 1.02503e-07 1.02462e-07 1.02462e-07 1.0242e-07
1.0242e-07 1.02378e-07 1.02378e-07 1.02336e-07 1.02336e-07 1.02294e-07 1.02294e-07 1.02251e-07 1.02251e-07 1.02208e-07
1.02208e-07 1.02165e-07 1.02165e-07 1.02122e-07 1.02122e-07 1.02078e-07 1.02078e-07 1.02034e-07 1.02034e-07 1.0199e-07
1.0199e-07 1.01946e-07 1.01946e-07 1.01902e-07 1.01902e-07 1.01857e-07 1.01857e-07 1.01812e-07 1.01812e-07 1.01767e-07
1.01767e-07 1.01721e-07 1.01721e-07 1.01676e-07 1.01676e-07 1.0163e-07 1.0163e-07 1.01583e-07 1.01583e-07 1.01537e-07
1.01537e-07 1.0149e-07 1.0149e-07 1.01444e-07 1.01444e-07 1.01396e-07 1.01396e-07 1.01349e-07 1.01349e-07 1.01302e-07
1.01302e-07 1.01254e-07 1.01254e-07 1.01206e-07 1.01206e-07 1.01157e-07 1.01157e-07 1.01109e-07 1.01109e-07 1.0106e-07
1.0106e-07 1.01011e-07 1.01011e-07 1.00962e-07 1.00962e-07 1.00912e-07 1.00912e-07 1.00863e-07 1.00863e-07 1.00813e-07
1.00813e-07 1.00763e-07 1.00763e-07 1.00712e-07 1.00712e-07 1.00662e-07 1.00662e-07 1.00611e-07 1.00611e-07 1.0056e-07
1.0056e-07 1.00508e-07 1.00508e-07 1.00457e-07 1.00457e-07 1.00405e-07 1.00405e-07 1.00353e-07 1.00353e-07 1.00301e-07
1.00301e-07 1.00249e-07 1.00249e-07 1.00196e-07 1.00196e-07 1.00143e-07 1.00143e-07 1.0009e-07 1.0009e-07 1.00037e-07
1.00037e-07 9.9983e-08 9.9983e-08 9.99293e-08 9.99293e-08 9.98753e-08 9.98753e-08 9.98211e-08 9.98211e-08 9.97666e-08
9.97666e-08 9.9712e-08 9.9712e-08 9.96571e-08 9.96571e-08 9.96021e-08 9.96021e-08 9.95467e-08 9.95467e-08 9.94913e-08
9.94913e-08 9.94355e-08 9.94355e-08 9.93796e-08 9.93796e-08 9.93234e-08 9.93234e-08 9.92671e-08 9.92671e-08 9.92105e-08
9.92105e-08 9.91537e-08 9.91537e-08 9.90967e-08 9.90967e-08 9.90395e-08 9.90395e-08 9.8982e-08 9.8982e-08 9.89217e-08
9.89217e-08 9.88538e-08 9.88538e-08 9.87838e-08 9.87838e-08 9.87143e-08 9.87143e-08 9.86455e-08 9.86455e-08 9.85772e-08
9.85772e-08 9.85095e-08 9.85095e-08 9.84424e-08 9.84424e-08 9.83759e-08 9.83759e-08 9.83098e-08 9.83098e-08 9.82444e-08
9.82444e-08 9.81794e-08 9.81794e-08 9.81151e-08 9.81151e-08 9.80511e-08 9.80511e-08 9.79878e-08 9.79878e-08 9.79249e-08
9.79249e-08 9.78626e-08 9.78626e-08 9.78007e-08 9.78007e-08 9.77393e-08 9.77393e-08 9.76783e-08 9.76783e-08 9.76179e-08
9.76179e-08 9.75578e-08 9.75578e-08 9.74983e-08 9.74983e-08 9.74392e-08 9.74392e-08 9.73805e-08 9.73805e-08 9.73222e-08
9.73222e-08 9.72645e-08 9.72645e-08 9.7207e-08 9.7207e-08 9.71501e-08 9.71501e-08 9.70934e-08 9.70934e-08 9.70373e-08
9.70373e-08 9.69815e-08 9.69815e-08 9.69261e-08 9.69261e-08 9.68711e-08 9.68711e-08 9.68165e-08 9.68165e-08 9.67622e-08
9.67622e-08 9.67083e-08 9.67083e-08 9.66548e-08 9.66548e-08 9.66017e-08 9.66017e-08 9.65488e-08 9.65488e-08 9.64964e-08
9.64964e-08 9.64442e-08 9.64442e-08 9.63925e-08 9.63925e-08 9.6341e-08 9.6341e-08 9.629e-08 9.629e-08 9.62392e-08
9.62392e-08 9.61887e-08 9.61887e-08 9.61386e-08 9.61386e-08 9.60888e-08 9.60888e-08 9.60392e-08 9.60392e-08 9.59901e-08
9.59901e-08 9.59411e-08 9.59411e-08 9.58926e-08 9.58926e-08 9.58442e-08 9.58442e-08 9.57962e-08 9.57962e-08 9.57485e-08
9.57485e-08 9.57011e-08 9.57011e-08 9.56539e-08 9.56539e-08 9.5607e-08 9.5607e-08 9.55604e-08 9.55604e-08 9.55141e-08
9.55141e-08 9.5468e-08 9.5468e-08 9.54222e-08 9.54222e-08 9.53767e-08 9.53767e-08 9.53314e-08 9.53314e-08 9.52863e-08
9.52863e-08 9.52416e-08 9.52416e-08 9.5197e-08 9.5197e-08 9.51528e-08 9.51528e-08 9.51087e-08 9.51087e-08 9.50649e-08
9.50649e-08 9.50214e-08 9.50214e-08 9.4978e-08 9.4978e-08 9.49349e-08 9.49349e-08 9.48921e-08 9.48921e-08 9.48495e-08
9.48495e-08 9.4807e-08 9.4807e-08 9.47649e-08 9.47649e-08 9.47229e-08 9.47229e-08 9.46811e-08 9.46811e-08 9.46396e-08
9.46396e-08 9.45983e-08 9.45983e-08 9.45572e-08 9.45572e-08 9.45162e-08 9.45162e-08 9.44755e-08 9.44755e-08 9.4435e-08
9.4435e-08 9.43947e-08 9.43947e-08 9.43546e-08 9.43546e-08 9.43147e-08 9.43147e-08 9.42751e-08 9.42751e-08 9.42353e-08
9.42353e-08 9.41969e-08 9.41969e-08 9.41545e-08 9.41545e-08 9.4127e-08 9.4127e-08 9.40524e-08 9.40524e-08 9.3988e-08
9.3988e-08 
Cz 1 1092 float
0.05 0.05 0.05 0.05 0.05 0.05 0.05 0.05 0.05 0.05 0.05
0.05 0.05 0.05 0.05 0.05 0.05 0.05 0.05 0.05 0.05
0.05 0.05 0.05 0.05 0.05 0.05 0.05 0.05 0.05 0.05
0.05 0.05 0.05 0.05 0.05 0.05 0.05 0.05 0.05 0.05
0.05 0.05 0.05 0.05 0.05 0.05 0.05 0.05 0.05 0.05
0.05 0.05 0.05 0.05 0.05 0.05 0.05 0.05 0.05 0.05
0.05 0.05 0.05 0.05 0.05 0.05 0.05 0.05 0.05 0.05
0.05 0.05 0.05 0.05 0.05 0.05 0.05 0.05 0.05 0.05
0.05 0.05 0.05 0.05 0.05 0.05 0.05 0.05 0.05 0.05
0.05 0.05 0.05 0.05 0.05 0.05 0.05 0.05 0.05 0.05
0.05 0.05 0.05 0.05 0.05 0.05 0.05 0.05 0.05 0.05
0.05 0.05 0.05 0.05 0.05 0.05 0.05 0.05 0.05 0.05
0.05 0.05 0.05 0.05 0.05 0.05 0.05 0.05 0.05 0.05
0.05 0.05 0.05 0.05 0.05 0.05 0.05 0.05 0.05 0.05
0.05 0.05 0.05 0.05 0.05 0.05 0.05 0.05 0.05 0.05
0.05 0.05 0.05 0.05 0.05 0.05 0.05 0.05 0.05 0.05
0.05 0.05 0.05 0.05 0.05 0.05 0.05 0.05 0.05 0.05
0.05 0.05 0.05 0.05 0.05 0.05 0.05 0.05 0.05 0.05
0.05 0.05 0.05 0.05 0.05 0.05 0.05 0.05 0.05 0.05
0.05 0.05 0.05 0.05 0.05 0.05 0.05 0.05 0.05 0.05
0.05 0.05 0.05 0.05 0.05 0.05 0.05 0.05 0.05 0.05
0.05 0.05 0.05 0.05 0.05 0.05 0.05 0.05 0.05 0.05
0.05 0.05 0.05 0.05 0.05 0.05 0.05 0.05 0.05 0.05
0.05 0.05 0.05 0.05 0.05 0.05 0.05 0.05 0.05 0.05
0.05 0.05 0.05 0.05 0.05 0.05 0.05 0.05 0.05 0.05
0.05 0.05 0.05 0.05 0.05 0.05 0.05 0.05 0.05 0.05
0.05 0.05 0.05 0.05 0.05 0.05 0.05 0.05 0.05 0.05
0.05 0.05 0.05 0.05 0.05 0.05 0.05 0.05 0.05 0.05
0.05 0.05 0.05 0.05 0.05 0.05 0.05 0.05 0.05 0.05
0.05 0.05 0.05 0.05 0.05 0.05 0.05 0.05 0.05 0.05
0.05 0.05 0.05 0.05 0.05 0.05 0.05 0.05 0.05 0.05
0.05 0.05 0.05 0.05 0.05 0.05 0.05 0.05 0.05 0.05
0.05 0.05 0.05 0.05 0.05 0.05 0.05 0.05 0.05 0.05
0.05 0.05 0.05 0.05 0.05 0.05 0.05 0.05 0.05 0.05
0.05 0.05 0.05 0.05 0.05 0.05 0.05 0.05 0.05 0.05
0.05 0.05 0.05 0.05 0.05 0.05 0.05 0.05 0.05 0.05
0.05 0.05 0.05 0.05 0.05 0.05 0.05 0.05 0.05 0.05
0.05 0.05 0.05 0.05 0.05 0.05 0.05 0.05 0.05 0.05
0.05 0.05 0.05 0.05 0.05 0.05 0.05 0.05 0.05 0.05
0.05 0.05 0.05 0.05 0.05 0.05 0.05 0.05 0.05 0.05
0.05 0.05 0.05 0.05 0.05 0.05 0.05 0.05 0.05 0.05
0.05 0.05 0.05 0.05 0.05 0.05 0.05 0.05 0.05 0.05
0.05 0.05 0.05 0.05 0.05 0.05 0.05 0.05 0.05 0.05
0.05 0.05 0.05 0.05 0.05 0.05 0.05 0.05 0.05 0.05
0.05 0.05 0.05 0.05 0.05 0.05 0.05 0.05 0.05 0.05
0.05 0.05 0.05 0.05 0.05 0.05 0.05 0.05 0.05 0.05
0.05 0.05 0.05 0.05 0.05 0.05 0.05 0.05 0.05 0.05
0.05 0.05 0.05 0.05 0.05 0.05 0.05 0.05 0.05 0.05
0.05 0.05 0.05 0.05 0.05 0.05 0.05 0.05 0.05 0.05
0.05 0.05 0.05 0.05 0.05 0.05 0.05 0.05 0.05 0.05
0.05 0.05 0.05 0.05 0.05 0.05 0.05 0.05 0.05 0.05
0.05 0.05 0.05 0.05 0.05 0.05 0.05 0.05 0.05 0.05
0.05 0.05 0.05 0.05 0.05 0.05 0.05 0.05 0.05 0.05
0.05 0.05 0.05 0.05 0.05 0.05 0.05 0.05 0.05 0.05
0.05 0.05 0.05 0.05 0.05 0.05 0.05 0.05 0.05 0.05
0.05 0.05 0.05 0.05 0.05 0.05 0.05 0.05 0.05 0.05
0.05 0.05 0.05 0.05 0.05 0.05 0.05 0.05 0.05 0.05
0.05 0.05 0.05 0.05 0.05 0.05 0.05 0.05 0.05 0.05
0.05 0.05 0.05 0.05 0.05 0.05 0.05 0.05 0.05 0.05
0.05 0.05 0.05 0.05 0.05 0.05 0.05 0.05 0.05 0.05
0.05 0.05 0.05 0.05 0.05 0.05 0.05 0.05 0.05 0.05
0.05 0.05 0.05 0.05 0.05 0.05 0.05 0.05 0.05 0.05
0.05 0.05 0.05 0.05 0.05 0.05 0.05 0.05 0.05 0.05
0.05 0.05 0.05 0.05 0.05 0.05 0.05 0.05 0.05 0.05
0.05 0.05 0.05 0.05 0.05 0.05 0.05 0.05 0.05 0.05
0.05 0.05 0.05 0.05 0.05 0.05 0.05 0.05 0.05 0.05
0.05 0.05 0.05 0.05 0.05 0.05 0.05 0.05 0.05 0.05
0.05 0.05 0.05 0.05 0.05 0.05 0.05 0.05 0.05 0.05
0.05 0.05 0.05 0.05 0.05 0.05 0.05 0.05 0.05 0.05
0.05 0.05 0.05 0.05 0.05 0.05 0.05 0.05 0.05 0.05
0.05 0.05 0.05 0.05 0.05 0.05 0.05 0.05 0.05 0.05
0.05 0.05 0.05 0.05 0.05 0.05 0.05 0.05 0.05 0.05
0.05 0.05 0.05 0.05 0.05 0.05 0.05 0.05 0.05 0.05
0.05 0.05 0.05 0.05 0.05 0.05 0.05 0.05 0.05 0.05
0.05 0.05 0.05 0.05 0.05 0.05 0.05 0.05 0.05 0.05
0.05 0.05 0.05 0.05 0.05 0.05 0.05 0.05 0.05 0.05
0.05 0.05 0.05 0.05 0.05 0.05 0.05 0.05 0.05 0.05
0.05 0.05 0.05 0.05 0.05 0.05 0.05 0.05 0.05 0.05
0.05 0.05 0.05 0.05 0.05 0.05 0.05 0.05 0.05 0.05
0.05 0.05 0.05 0.05 0.05 0.05 0.05 0.05 0.05 0.05
0.05 0.05 0.05 0.05 0.05 0.05 0.05 0.05 0.05 0.05
0.05 0.05 0.05 0.05 0.05 0.05 0.05 0.05 0.05 0.05
0.05 0.05 0.05 0.05 0.05 0.05 0.05 0.05 0.05 0.05
0.05 0.05 0.05 0.05 0.05 0.05 0.05 0.05 0.05 0.05
0.05 0.05 0.05 0.05 0.05 0.05 0.05 0.05 0.05 0.05
0.05 0.05 0.05 0.05 0.05 0.05 0.05 0.05 0.05 0.05
0.05 0.05 0.05 0.05 0.05 0.05 0.05 0.05 0.05 0.05
0.05 0.05 0.05 0.05 0.05 0.05 0.05 0.05 0.05 0.05
0.05 0.05 0.05 0.05 0.05 0.05 0.05 0.05 0.05 0.05
0.05 0.05 0.05 0.05 0.05 0.05 0.05 0.05 0.05 0.05
0.05 0.05 0.05 0.05 0.05 0.05 0.05 0.05 0.05 0.05
0.05 0.05 0.05 0.05 0.05 0.05 0.05 0.05 0.05 0.05
0.05 0.05 0.05 0.05 0.05 0.05 0.05 0.05 0.05 0.05
0.05 0.05 0.05 0.05 0.05 0.05 0.05 0.05 0.05 0.05
0.05 0.05 0.05 0.05 0.05 0.05 0.05 0.05 0.05 0.05
0.05 0.05 0.05 0.05 0.05 0.05 0.05 0.05 0.05 0.05
0.05 0.05 0.05 0.05 0.05 0.05 0.05 0.05 0.05 0.05
0.05 0.05 0.05 0.05 0.05 0.05 0.05 0.05 0.05 0.05
0.05 0.05 0.05 0.05 0.05 0.05 0.05 0.05 0.05 0.05
0.05 0.05 0.05 0.05 0.05 0.05 0.05 0.05 0.05 0.05
0.05 0.05 0.05 0.05 0.05 0.05 0.05 0.05 0.05 0.05
0.05 0.05 0.05 0.05 0.05 0.05 0.05 0.05 0.05 0.05
0.05 0.05 0.05 0.05 0.05 0.05 0.05 0.05 0.05 0.05
0.05 0.05 0.05 0.05 0.05 0.05 0.05 0.05 0.05 0.05
0.05 0.05 0.05 0.05 0.05 0.05 0.05 0.05 0.05 0.05
0.05 0.05 0.05 0.05 0.05 0.05 0.05 0.05 0.05 0.05
0.05 0.05 0.05 0.05 0.05 0.05 0.05 0.05 0.05 0.05
0.05 0.05 0.05 0.05 0.05 0.05 0.05 0.05 0.05 0.05
0.05 0.05 0.05 0.05 0.05 0.05 0.05 0.05 0.05 0.05
0.05 
p 1 1092 float
15.5925 15.5925 15.592 15.592 15.5905 15.5905 15.5879 15.5879 15.5843 15.5843 15.5798
15.5798 15.5746 15.5746 15.5687 15.5687 15.5622 15.5622 15.555 15.555 15.5474
15.5474 15.5392 15.5392 15.5307 15.5307 15.5217 15.5217 15.5124 15.5124 15.5029
15.5029 15.493 15.493 15.483 15.483 15.4727 15.4727 15.4623 15.4623 15.4518
15.4518 15.4411 15.4411 15.4304 15.4304 15.4196 15.4196 15.4087 15.4087 15.3979
15.3979 15.387 15.387 15.3762 15.3762 15.3653 15.3653 15.3545 15.3545 15.3438
15.3438 15.3331 15.3331 15.3225 15.3225 15.3119 15.3119 15.3015 15.3015 15.2912
15.2912 15.2809 15.2809 15.2708 15.2708 15.2608 15.2608 15.2509 15.2509 15.2412
15.2412 15.2316 15.2316 15.2221 15.2221 15.2127 15.2127 15.2035 15.2035 15.1945
15.1945 15.1855 15.1855 15.1768 15.1768 15.1681 15.1681 15.1597 15.1597 15.1513
15.1513 15.1431 15.1431 15.1351 15.1351 15.1272 15.1272 15.1195 15.1195 15.1119
15.1119 15.1044 15.1044 15.0971 15.0971 15.0899 15.0899 15.0829 15.0829 15.076
15.076 15.0693 15.0693 15.0627 15.0627 15.0562 15.0562 15.0499 15.0499 15.0437
15.0437 15.0376 15.0376 15.0317 15.0317 15.0259 15.0259 15.0202 15.0202 15.0147
15.0147 15.0092 15.0092 15.004 15.004 14.9988 14.9988 14.9938 14.9938 14.9887
14.9887 14.9837 14.9837 14.9787 14.9787 14.9736 14.9736 14.9686 14.9686 14.9636
14.9636 14.9585 14.9585 14.9535 14.9535 14.9485 14.9485 14.9435 14.9435 14.9385
14.9385 14.9335 14.9335 14.9285 14.9285 14.9235 14.9235 14.9186 14.9186 14.9136
14.9136 14.9086 14.9086 14.9037 14.9037 14.8987 14.8987 14.8938 14.8938 14.8888
14.8888 14.8841 14.8841 14.8799 14.8799 14.8758 14.8758 14.8718 14.8718 14.8677
14.8677 14.8636 14.8636 14.8595 14.8595 14.8553 14.8553 14.8512 14.8512 14.847
14.847 14.8428 14.8428 14.8386 14.8386 14.8344 14.8344 14.8301 14.8301 14.8258
14.8258 14.8215 14.8215 14.8172 14.8172 14.8129 14.8129 14.8085 14.8085 14.8041
14.8041 14.7997 14.7997 14.7953 14.7953 14.7908 14.7908 14.7864 14.7864 14.7819
14.7819 14.7774 14.7774 14.7728 14.7728 14.7683 14.7683 14.7637 14.7637 14.7591
14.7591 14.7545 14.7545 14.7498 14.7498 14.7452 14.7452 14.7405 14.7405 14.7358
14.7358 14.731 14.731 14.7263 14.7263 14.7215 14.7215 14.7167 14.7167 14.7119
14.7119 14.707 14.707 14.7021 14.7021 14.6972 14.6972 14.6923 14.6923 14.6874
14.6874 14.6824 14.6824 14.6774 14.6774 14.6724 14.6724 14.6674 14.6674 14.6623
14.6623 14.6572 14.6572 14.6521 14.6521 14.647 14.647 14.6418 14.6418 14.6366
14.6366 14.6314 14.6314 14.6262 14.6262 14.6209 14.6209 14.6157 14.6157 14.6103
14.6103 14.605 14.605 14.5997 14.5997 14.5943 14.5943 14.5889 14.5889 14.5834
14.5834 14.578 14.578 14.5725 14.5725 14.567 14.567 14.5614 14.5614 14.5559
14.5559 14.5503 14.5503 14.5447 14.5447 14.539 14.539 14.5334 14.5334 14.5277
14.5277 14.522 14.522 14.5162 14.5162 14.5104 14.5104 14.5046 14.5046 14.4988
14.4988 14.493 14.493 14.4871 14.4871 14.4812 14.4812 14.4752 14.4752 14.4693
14.4693 14.4633 14.4633 14.4573 14.4573 14.4512 14.4512 14.4452 14.4452 14.4391
14.4391 14.4329 14.4329 14.4268 14.4268 14.4206 14.4206 14.4144 14.4144 14.4081
14.4081 14.4019 14.4019 14.3956 14.3956 14.3892 14.3892 14.3829 14.3829 14.3765
14.3765 14.3701 14.3701 14.3636 14.3636 14.3572 14.3572 14.3507 14.3507 14.3441
14.3441 14.3376 14.3376 14.331 14.331 14.3244 14.3244 14.3177 14.3177 14.311
14.311 14.3043 14.3043 14.2976 14.2976 14.2908 14.2908 14.284 14.284 14.2772
14.2772 14.2703 14.2703 14.2634 14.2634 14.2565 14.2565 14.2495 14.2495 14.2425
14.2425 14.2355 14.2355 14.2285 14.2285 14.2214 14.2214 14.2143 14.2143 14.2071
14.2071 14.2 14.2 14.1928 14.1928 14.1855 14.1855 14.1782 14.1782 14.1709
14.1709 14.1636 14.1636 14.1562 14.1562 14.1488 14.1488 14.1414 14.1414 14.1339
14.1339 14.1264 14.1264 14.1189 14.1189 14.1113 14.1113 14.1037 14.1037 14.0961
14.0961 14.0884 14.0884 14.0807 14.0807 14.073 14.073 14.0652 14.0652 14.0574
14.0574 14.0496 14.0496 14.0417 14.0417 14.0338 14.0338 14.0259 14.0259 14.0179
14.0179 14.0099 14.0099 14.0019 14.0019 13.9938 13.9938 13.9857 13.9857 13.9776
13.9776 13.9694 13.9694 13.9612 13.9612 13.9529 13.9529 13.9446 13.9446 13.9363
13.9363 13.928 13.928 13.9196 13.9196 13.9111 13.9111 13.9027 13.9027 13.8942
13.8942 13.8856 13.8856 13.8771 13.8771 13.8685 13.8685 13.8598 13.8598 13.8511
13.8511 13.8424 13.8424 13.8337 13.8337 13.8249 13.8249 13.8163 13.8163 13.8082
13.8082 13.8002 13.8002 13.7921 13.7921 13.7839 13.7839 13.7757 13.7757 13.7673
13.7673 13.7588 13.7588 13.7502 13.7502 13.7415 13.7415 13.7327 13.7327 13.7238
13.7238 13.7147 13.7147 13.7056 13.7056 13.6963 13.6963 13.6869 13.6869 13.6774
13.6774 13.6678 13.6678 13.658 13.658 13.6482 13.6482 13.6382 13.6382 13.6281
13.6281 13.6178 13.6178 13.6074 13.6074 13.5969 13.5969 13.5863 13.5863 13.5755
13.5755 13.5646 13.5646 13.5535 13.5535 13.5423 13.5423 13.531 13.531 13.5195
13.5195 13.5078 13.5078 13.496 13.496 13.4841 13.4841 13.472 13.472 13.4598
13.4598 13.4474 13.4474 13.4348 13.4348 13.4221 13.4221 13.4092 13.4092 13.3961
13.3961 13.3829 13.3829 13.3695 13.3695 13.3559 13.3559 13.3422 13.3422 13.3283
13.3283 13.3142 13.3142 13.2999 13.2999 13.2854 13.2854 13.2707 13.2707 13.2559
13.2559 13.2409 13.2409 13.2256 13.2256 13.2102 13.2102 13.1946 13.1946 13.1787
13.1787 13.1627 13.1627 13.1464 13.1464 13.13 13.13 13.1133 13.1133 13.0964
13.0964 13.0793 13.0793 13.062 13.062 13.0444 13.0444 13.0266 13.0266 13.0086
13.0086 12.9904 12.9904 12.9719 12.9719 12.9531 12.9531 12.9342 12.9342 12.915
12.915 12.8955 12.8955 12.8758 12.8758 12.8558 12.8558 12.8355 12.8355 12.815
12.815 12.7943 12.7943 12.7732 12.7732 12.7519 12.7519 12.7303 12.7303 12.7084
12.7084 12.6863 12.6863 12.6638 12.6638 12.6411 12.6411 12.618 12.618 12.5947
12.5947 12.5711 12.5711 12.5471 12.5471 12.5228 12.5228 12.4983 12.4983 12.4734
12.4734 12.4482 12.4482 12.4226 12.4226 12.3968 12.3968 12.3706 12.3706 12.344
12.344 12.3171 12.3171 12.2899 12.2899 12.2623 12.2623 12.2343 12.2343 12.206
12.206 12.1774 12.1774 12.1483 12.1483 12.1189 12.1189 12.0891 12.0891 12.059
12.059 12.0284 12.0284 11.9975 11.9975 11.9661 11.9661 11.9344 11.9344 11.9022
11.9022 11.8697 11.8697 11.8367 11.8367 11.8033 11.8033 11.7695 11.7695 11.7352
11.7352 11.7005 11.7005 11.6654 11.6654 11.6299 11.6299 11.5938 11.5938 11.5574
11.5574 11.5205 11.5205 11.4831 11.4831 11.4452 11.4452 11.4069 11.4069 11.3681
11.3681 11.3288 11.3288 11.289 11.289 11.2487 11.2487 11.208 11.208 11.1667
11.1667 11.1249 11.1249 11.0826 11.0826 11.0398 11.0398 10.9964 10.9964 10.9526
10.9526 10.9082 10.9082 10.8632 10.8632 10.8177 10.8177 10.7717 10.7717 10.7251
10.7251 10.6779 10.6779 10.6301 10.6301 10.5818 10.5818 10.533 10.533 10.4835
10.4835 10.4334 10.4334 10.3828 10.3828 10.3315 10.3315 10.2796 10.2796 10.2272
10.2272 10.1741 10.1741 10.1204 10.1204 10.066 10.066 10.011 10.011 9.95543
9.95543 9.89917 9.89917 9.84227 9.84227 9.7847 9.7847 9.72648 9.72648 9.66759
9.66759 9.60803 9.60803 9.54779 9.54779 9.48687 9.48687 9.42526 9.42526 9.36295
9.36295 9.29995 9.29995 9.23624 9.23624 9.17181 9.17181 9.10668 9.10668 9.04082
9.04082 8.97423 8.97423 8.90691 8.90691 8.83885 8.83885 8.77004 8.77004 8.70049
8.70049 8.63018 8.63018 8.5591 8.5591 8.48726 8.48726 8.41465 8.41465 8.33715
8.33715 8.25069 8.25069 8.15995 8.15995 8.06924 8.06924 7.97856 7.97856 7.88792
7.88792 7.79731 7.79731 7.70675 7.70675 7.61624 7.61624 7.52577 7.52577 7.43535
7.43535 7.34499 7.34499 7.25468 7.25468 7.16443 7.16443 7.07425 7.07425 6.98412
6.98412 6.89406 6.89406 6.80407 6.80407 6.71414 6.71414 6.62429 6.62429 6.5345
6.5345 6.44479 6.44479 6.35515 6.35515 6.26558 6.26558 6.17609 6.17609 6.08668
6.08668 5.99734 5.99734 5.90808 5.90808 5.81889 5.81889 5.72979 5.72979 5.64076
5.64076 5.55181 5.55181 5.46294 5.46294 5.37415 5.37415 5.28543 5.28543 5.1968
5.1968 5.10824 5.10824 5.01977 5.01977 4.93137 4.93137 4.84305 4.84305 4.7548
4.7548 4.66663 4.66663 4.57854 4.57854 4.49053 4.49053 4.40259 4.40259 4.31472
4.31472 4.22693 4.22693 4.13921 4.13921 4.05156 4.05156 3.96398 3.96398 3.87648
3.87648 3.78904 3.78904 3.70167 3.70167 3.61437 3.61437 3.52713 3.52713 3.43996
3.43996 3.35285 3.35285 3.26581 3.26581 3.17882 3.17882 3.0919 3.0919 3.00503
3.00503 2.91823 2.91823 2.83147 2.83147 2.74478 2.74478 2.65813 2.65813 2.57154
2.57154 2.48499 2.48499 2.3985 2.3985 2.31205 2.31205 2.22565 2.22565 2.13929
2.13929 2.05297 2.05297 1.9667 1.9667 1.88046 1.88046 1.79426 1.79426 1.70809
1.70809 1.62196 1.62196 1.53586 1.53586 1.44979 1.44979 1.36375 1.36375 1.27774
1.27774 1.19175 1.19175 1.10578 1.10578 1.01984 1.01984 0.933912 0.933912 0.848003
0.848003 0.762111 0.762111 0.676232 0.676232 0.590368 0.590368 0.504502 0.504502 0.418687
0.418687 0.332749 0.332749 0.247336 0.247336 0.160763 0.160763 0.0815921 0.0815921 0.0466458
0.0466458 
k 1 1092 float
0.00102386 0.00102386 0.000977998 0.000977998 0.000894462 0.000894462 0.000825293 0.000825293 0.000767137 0.000767137 0.000717598
0.000717598 0.000674926 0.000674926 0.000637811 0.000637811 0.000605253 0.000605253 0.000576479 0.000576479 0.000550879
0.000550879 0.000527968 0.000527968 0.000507352 0.000507352 0.000488713 0.000488713 0.000471786 0.000471786 0.000456353
0.000456353 0.000442231 0.000442231 0.000429265 0.000429265 0.000417324 0.000417324 0.000406294 0.000406294 0.000396081
0.000396081 0.000386599 0.000386599 0.000377777 0.000377777 0.000369552 0.000369552 0.000361867 0.000361867 0.000354674
0.000354674 0.000347929 0.000347929 0.000341595 0.000341595 0.000335638 0.000335638 0.000330025 0.000330025 0.000324732
0.000324732 0.000319732 0.000319732 0.000315004 0.000315004 0.000310528 0.000310528 0.000306286 0.000306286 0.000302262
0.000302262 0.00029844 0.00029844 0.000294806 0.000294806 0.00029135 0.00029135 0.000288058 0.000288058 0.000284921
0.000284921 0.000281929 0.000281929 0.000279074 0.000279074 0.000276346 0.000276346 0.000273739 0.000273739 0.000271246
0.000271246 0.000268861 0.000268861 0.000266576 0.000266576 0.000264388 0.000264388 0.000262289 0.000262289 0.000260277
0.000260277 0.000258346 0.000258346 0.000256493 0.000256493 0.000254712 0.000254712 0.000253001 0.000253001 0.000251356
0.000251356 0.000249775 0.000249775 0.000248253 0.000248253 0.000246788 0.000246788 0.000245378 0.000245378 0.00024402
0.00024402 0.000242711 0.000242711 0.00024145 0.00024145 0.000240234 0.000240234 0.000239062 0.000239062 0.00023793
0.00023793 0.000236839 0.000236839 0.000235785 0.000235785 0.000234768 0.000234768 0.000233786 0.000233786 0.000232837
0.000232837 0.00023192 0.00023192 0.00023104 0.00023104 0.000230196 0.000230196 0.000229372 0.000229372 0.000228557
0.000228557 0.000227752 0.000227752 0.000226955 0.000226955 0.000226168 0.000226168 0.000225389 0.000225389 0.000224619
0.000224619 0.000223858 0.000223858 0.000223105 0.000223105 0.00022236 0.00022236 0.000221623 0.000221623 0.000220895
0.000220895 0.000220174 0.000220174 0.000219461 0.000219461 0.000218755 0.000218755 0.000218057 0.000218057 0.000217367
0.000217367 0.000216684 0.000216684 0.000216008 0.000216008 0.000215339 0.000215339 0.000214677 0.000214677 0.000214022
0.000214022 0.000213404 0.000213404 0.00021285 0.00021285 0.000212328 0.000212328 0.000211808 0.000211808 0.000211288
0.000211288 0.00021077 0.00021077 0.000210253 0.000210253 0.000209737 0.000209737 0.000209223 0.000209223 0.000208709
0.000208709 0.000208197 0.000208197 0.000207686 0.000207686 0.000207177 0.000207177 0.000206668 0.000206668 0.000206161
0.000206161 0.000205655 0.000205655 0.00020515 0.00020515 0.000204646 0.000204646 0.000204144 0.000204144 0.000203642
0.000203642 0.000203142 0.000203142 0.000202643 0.000202643 0.000202145 0.000202145 0.000201649 0.000201649 0.000201153
0.000201153 0.000200659 0.000200659 0.000200166 0.000200166 0.000199674 0.000199674 0.000199183 0.000199183 0.000198693
0.000198693 0.000198205 0.000198205 0.000197718 0.000197718 0.000197231 0.000197231 0.000196746 0.000196746 0.000196263
0.000196263 0.00019578 0.00019578 0.000195298 0.000195298 0.000194818 0.000194818 0.000194339 0.000194339 0.00019386
0.00019386 0.000193383 0.000193383 0.000192908 0.000192908 0.000192433 0.000192433 0.000191959 0.000191959 0.000191487
0.000191487 0.000191015 0.000191015 0.000190545 0.000190545 0.000190076 0.000190076 0.000189608 0.000189608 0.000189141
0.000189141 0.000188675 0.000188675 0.00018821 0.00018821 0.000187747 0.000187747 0.000187284 0.000187284 0.000186823
0.000186823 0.000186362 0.000186362 0.000185903 0.000185903 0.000185445 0.000185445 0.000184988 0.000184988 0.000184532
0.000184532 0.000184077 0.000184077 0.000183624 0.000183624 0.000183171 0.000183171 0.000182719 0.000182719 0.000182269
0.000182269 0.000181819 0.000181819 0.000181371 0.000181371 0.000180923 0.000180923 0.000180477 0.000180477 0.000180032
0.000180032 0.000179588 0.000179588 0.000179145 0.000179145 0.000178703 0.000178703 0.000178262 0.000178262 0.000177822
0.000177822 0.000177383 0.000177383 0.000176945 0.000176945 0.000176508 0.000176508 0.000176073 0.000176073 0.000175638
0.000175638 0.000175204 0.000175204 0.000174772 0.000174772 0.00017434 0.00017434 0.000173909 0.000173909 0.00017348
0.00017348 0.000173051 0.000173051 0.000172624 0.000172624 0.000172197 0.000172197 0.000171772 0.000171772 0.000171348
0.000171348 0.000170924 0.000170924 0.000170502 0.000170502 0.00017008 0.00017008 0.00016966 0.00016966 0.000169241
0.000169241 0.000168822 0.000168822 0.000168405 0.000168405 0.000167989 0.000167989 0.000167573 0.000167573 0.000167159
0.000167159 0.000166745 0.000166745 0.000166333 0.000166333 0.000165922 0.000165922 0.000165511 0.000165511 0.000165102
0.000165102 0.000164693 0.000164693 0.000164286 0.000164286 0.000163879 0.000163879 0.000163474 0.000163474 0.000163069
0.000163069 0.000162666 0.000162666 0.000162263 0.000162263 0.000161861 0.000161861 0.000161461 0.000161461 0.000161061
0.000161061 0.000160662 0.000160662 0.000160264 0.000160264 0.000159868 0.000159868 0.000159472 0.000159472 0.000159077
0.000159077 0.000158683 0.000158683 0.00015829 0.00015829 0.000157898 0.000157898 0.000157506 0.000157506 0.000157116
0.000157116 0.000156727 0.000156727 0.000156339 0.000156339 0.000155951 0.000155951 0.000155565 0.000155565 0.000155179
0.000155179 0.000154794 0.000154794 0.000154411 0.000154411 0.000154028 0.000154028 0.000153646 0.000153646 0.000153265
0.000153265 0.000152885 0.000152885 0.000152506 0.000152506 0.000152128 0.000152128 0.000151751 0.000151751 0.000151374
0.000151374 0.000150999 0.000150999 0.000150624 0.000150624 0.000150251 0.000150251 0.000149878 0.000149878 0.000149506
0.000149506 0.000149135 0.000149135 0.000148765 0.000148765 0.000148396 0.000148396 0.000148027 0.000148027 0.00014766
0.00014766 0.000147293 0.000147293 0.000146928 0.000146928 0.000146563 0.000146563 0.000146199 0.000146199 0.000145836
0.000145836 0.000145474 0.000145474 0.000145113 0.000145113 0.000144753 0.000144753 0.000144393 0.000144393 0.000144034
0.000144034 0.000143677 0.000143677 0.00014332 0.00014332 0.000142964 0.000142964 0.000142609 0.000142609 0.000142254
0.000142254 0.000141901 0.000141901 0.000141548 0.000141548 0.000141197 0.000141197 0.000140846 0.000140846 0.000140496
0.000140496 0.000140146 0.000140146 0.000139798 0.000139798 0.000139451 0.000139451 0.000139114 0.000139114 0.000138796
0.000138796 0.000138487 0.000138487 0.000138175 0.000138175 0.000137862 0.000137862 0.000137546 0.000137546 0.000137229
0.000137229 0.000136909 0.000136909 0.000136588 0.000136588 0.000136264 0.000136264 0.000135939 0.000135939 0.000135611
0.000135611 0.000135282 0.000135282 0.00013495 0.00013495 0.000134617 0.000134617 0.000134281 0.000134281 0.000133943
0.000133943 0.000133604 0.000133604 0.000133262 0.000133262 0.000132918 0.000132918 0.000132573 0.000132573 0.000132225
0.000132225 0.000131875 0.000131875 0.000131523 0.000131523 0.00013117 0.00013117 0.000130814 0.000130814 0.000130456
0.000130456 0.000130097 0.000130097 0.000129735 0.000129735 0.000129371 0.000129371 0.000129006 0.000129006 0.000128638
0.000128638 0.000128269 0.000128269 0.000127897 0.000127897 0.000127524 0.000127524 0.000127148 0.000127148 0.000126771
0.000126771 0.000126392 0.000126392 0.000126011 0.000126011 0.000125628 0.000125628 0.000125243 0.000125243 0.000124856
0.000124856 0.000124467 0.000124467 0.000124077 0.000124077 0.000123684 0.000123684 0.00012329 0.00012329 0.000122894
0.000122894 0.000122496 0.000122496 0.000122096 0.000122096 0.000121695 0.000121695 0.000121291 0.000121291 0.000120886
0.000120886 0.000120479 0.000120479 0.000120071 0.000120071 0.00011966 0.00011966 0.000119248 0.000119248 0.000118834
0.000118834 0.000118419 0.000118419 0.000118002 0.000118002 0.000117583 0.000117583 0.000117162 0.000117162 0.00011674
0.00011674 0.000116316 0.000116316 0.000115891 0.000115891 0.000115464 0.000115464 0.000115035 0.000115035 0.000114605
0.000114605 0.000114173 0.000114173 0.00011374 0.00011374 0.000113305 0.000113305 0.000112869 0.000112869 0.000112431
0.000112431 0.000111992 0.000111992 0.000111551 0.000111551 0.000111109 0.000111109 0.000110666 0.000110666 0.000110221
0.000110221 0.000109775 0.000109775 0.000109327 0.000109327 0.000108878 0.000108878 0.000108428 0.000108428 0.000107977
0.000107977 0.000107524 0.000107524 0.00010707 0.00010707 0.000106615 0.000106615 0.000106159 0.000106159 0.000105702
0.000105702 0.000105243 0.000105243 0.000104783 0.000104783 0.000104322 0.000104322 0.000103861 0.000103861 0.000103398
0.000103398 0.000102934 0.000102934 0.000102469 0.000102469 0.000102003 0.000102003 0.000101536 0.000101536 0.000101069
0.000101069 0.0001006 0.0001006 0.00010013 0.00010013 9.966e-05 9.966e-05 9.91889e-05 9.91889e-05 9.87169e-05
9.87169e-05 9.82442e-05 9.82442e-05 9.77707e-05 9.77707e-05 9.72966e-05 9.72966e-05 9.68217e-05 9.68217e-05 9.63462e-05
9.63462e-05 9.58701e-05 9.58701e-05 9.53933e-05 9.53933e-05 9.4916e-05 9.4916e-05 9.44382e-05 9.44382e-05 9.39598e-05
9.39598e-05 9.34809e-05 9.34809e-05 9.30016e-05 9.30016e-05 9.25218e-05 9.25218e-05 9.20416e-05 9.20416e-05 9.15611e-05
9.15611e-05 9.10802e-05 9.10802e-05 9.0599e-05 9.0599e-05 9.01175e-05 9.01175e-05 8.96358e-05 8.96358e-05 8.91538e-05
8.91538e-05 8.86716e-05 8.86716e-05 8.81892e-05 8.81892e-05 8.77067e-05 8.77067e-05 8.72241e-05 8.72241e-05 8.67414e-05
8.67414e-05 8.62586e-05 8.62586e-05 8.57758e-05 8.57758e-05 8.5293e-05 8.5293e-05 8.48103e-05 8.48103e-05 8.43275e-05
8.43275e-05 8.3845e-05 8.3845e-05 8.33624e-05 8.33624e-05 8.28801e-05 8.28801e-05 8.23979e-05 8.23979e-05 8.1916e-05
8.1916e-05 8.14343e-05 8.14343e-05 8.09528e-05 8.09528e-05 8.04717e-05 8.04717e-05 7.99909e-05 7.99909e-05 7.95103e-05
7.95103e-05 7.90303e-05 7.90303e-05 7.85506e-05 7.85506e-05 7.80714e-05 7.80714e-05 7.75926e-05 7.75926e-05 7.71143e-05
7.71143e-05 7.66365e-05 7.66365e-05 7.61594e-05 7.61594e-05 7.56827e-05 7.56827e-05 7.52068e-05 7.52068e-05 7.47314e-05
7.47314e-05 7.42567e-05 7.42567e-05 7.37827e-05 7.37827e-05 7.33094e-05 7.33094e-05 7.28369e-05 7.28369e-05 7.23652e-05
7.23652e-05 7.18942e-05 7.18942e-05 7.14241e-05 7.14241e-05 7.09548e-05 7.09548e-05 7.04865e-05 7.04865e-05 7.0019e-05
7.0019e-05 6.95525e-05 6.95525e-05 6.90869e-05 6.90869e-05 6.86224e-05 6.86224e-05 6.81588e-05 6.81588e-05 6.76963e-05
6.76963e-05 6.72348e-05 6.72348e-05 6.67745e-05 6.67745e-05 6.63152e-05 6.63152e-05 6.58572e-05 6.58572e-05 6.54001e-05
6.54001e-05 6.49445e-05 6.49445e-05 6.44898e-05 6.44898e-05 6.40366e-05 6.40366e-05 6.35845e-05 6.35845e-05 6.31338e-05
6.31338e-05 6.26842e-05 6.26842e-05 6.22362e-05 6.22362e-05 6.17892e-05 6.17892e-05 6.13439e-05 6.13439e-05 6.08746e-05
6.08746e-05 6.03603e-05 6.03603e-05 5.98286e-05 5.98286e-05 5.9306e-05 5.9306e-05 5.87919e-05 5.87919e-05 5.82865e-05
5.82865e-05 5.77892e-05 5.77892e-05 5.73002e-05 5.73002e-05 5.68188e-05 5.68188e-05 5.63455e-05 5.63455e-05 5.58793e-05
5.58793e-05 5.54208e-05 5.54208e-05 5.49692e-05 5.49692e-05 5.45249e-05 5.45249e-05 5.40872e-05 5.40872e-05 5.36565e-05
5.36565e-05 5.3232e-05 5.3232e-05 5.28142e-05 5.28142e-05 5.24024e-05 5.24024e-05 5.1997e-05 5.1997e-05 5.15973e-05
5.15973e-05 5.12037e-05 5.12037e-05 5.08156e-05 5.08156e-05 5.04334e-05 5.04334e-05 5.00564e-05 5.00564e-05 4.96851e-05
4.96851e-05 4.93187e-05 4.93187e-05 4.89578e-05 4.89578e-05 4.86016e-05 4.86016e-05 4.82507e-05 4.82507e-05 4.79043e-05
4.79043e-05 4.75629e-05 4.75629e-05 4.72259e-05 4.72259e-05 4.68938e-05 4.68938e-05 4.65658e-05 4.65658e-05 4.62425e-05
4.62425e-05 4.59232e-05 4.59232e-05 4.56084e-05 4.56084e-05 4.52974e-05 4.52974e-05 4.49908e-05 4.49908e-05 4.46878e-05
4.46878e-05 4.43891e-05 4.43891e-05 4.40938e-05 4.40938e-05 4.38027e-05 4.38027e-05 4.35148e-05 4.35148e-05 4.32309e-05
4.32309e-05 4.29502e-05 4.29502e-05 4.26734e-05 4.26734e-05 4.23996e-05 4.23996e-05 4.21295e-05 4.21295e-05 4.18623e-05
4.18623e-05 4.15988e-05 4.15988e-05 4.1338e-05 4.1338e-05 4.10807e-05 4.10807e-05 4.08262e-05 4.08262e-05 4.0575e-05
4.0575e-05 4.03264e-05 4.03264e-05 4.0081e-05 4.0081e-05 3.98382e-05 3.98382e-05 3.95985e-05 3.95985e-05 3.93613e-05
3.93613e-05 3.91271e-05 3.91271e-05 3.88952e-05 3.88952e-05 3.86663e-05 3.86663e-05 3.84396e-05 3.84396e-05 3.82158e-05
3.82158e-05 3.79942e-05 3.79942e-05 3.77754e-05 3.77754e-05 3.75586e-05 3.75586e-05 3.73445e-05 3.73445e-05 3.71324e-05
3.71324e-05 3.69231e-05 3.69231e-05 3.67155e-05 3.67155e-05 3.65106e-05 3.65106e-05 3.63075e-05 3.63075e-05 3.6107e-05
3.6107e-05 3.59081e-05 3.59081e-05 3.57118e-05 3.57118e-05 3.55171e-05 3.55171e-05 3.53248e-05 3.53248e-05 3.51341e-05
3.51341e-05 3.49459e-05 3.49459e-05 3.47591e-05 3.47591e-05 3.45746e-05 3.45746e-05 3.43916e-05 3.43916e-05 3.42109e-05
3.42109e-05 3.40316e-05 3.40316e-05 3.38545e-05 3.38545e-05 3.36787e-05 3.36787e-05 3.35051e-05 3.35051e-05 3.33327e-05
3.33327e-05 3.31631e-05 3.31631e-05 3.29916e-05 3.29916e-05 3.28358e-05 3.28358e-05 3.26211e-05 3.26211e-05 3.24537e-05
3.24537e-05 
omega 1 1092 float
8259.77 8259.77 7917.97 7917.97 7293.35 7293.35 6772.69 6772.69 6332.25 6332.25 5954.98
5954.98 5628.35 5628.35 5342.92 5342.92 5091.46 5091.46 4868.32 4868.32 4669.05
4669.05 4490.08 4490.08 4328.51 4328.51 4181.98 4181.98 4048.53 4048.53 3926.53
3926.53 3814.59 3814.59 3711.57 3711.57 3616.47 3616.47 3528.44 3528.44 3446.75
3446.75 3370.77 3370.77 3299.94 3299.94 3233.77 3233.77 3171.85 3171.85 3113.8
3113.8 3059.29 3059.29 3008.01 3008.01 2959.71 2959.71 2914.15 2914.15 2871.12
2871.12 2830.42 2830.42 2791.9 2791.9 2755.38 2755.38 2720.73 2720.73 2687.82
2687.82 2656.53 2656.53 2626.77 2626.77 2598.42 2598.42 2571.4 2571.4 2545.62
2545.62 2521.02 2521.02 2497.52 2497.52 2475.05 2475.05 2453.57 2453.57 2433
2433 2413.31 2413.31 2394.44 2394.44 2376.34 2376.34 2358.99 2358.99 2342.33
2342.33 2326.34 2326.34 2310.98 2310.98 2296.22 2296.22 2282.02 2282.02 2268.37
2268.37 2255.24 2255.24 2242.59 2242.59 2230.42 2230.42 2218.69 2218.69 2207.39
2207.39 2196.5 2196.5 2185.99 2185.99 2175.86 2175.86 2166.09 2166.09 2156.66
2156.66 2147.55 2147.55 2138.76 2138.76 2130.27 2130.27 2122.07 2122.07 2114.15
2114.15 2106.49 2106.49 2099.13 2099.13 2092.08 2092.08 2085.18 2085.18 2078.37
2078.37 2071.63 2071.63 2064.97 2064.97 2058.37 2058.37 2051.85 2051.85 2045.4
2045.4 2039.02 2039.02 2032.71 2032.71 2026.47 2026.47 2020.29 2020.29 2014.18
2014.18 2008.13 2008.13 2002.15 2002.15 1996.22 1996.22 1990.37 1990.37 1984.57
1984.57 1978.83 1978.83 1973.15 1973.15 1967.53 1967.53 1961.96 1961.96 1956.46
1956.46 1951.26 1951.26 1946.6 1946.6 1942.2 1942.2 1937.82 1937.82 1933.45
1933.45 1929.09 1929.09 1924.73 1924.73 1920.39 1920.39 1916.05 1916.05 1911.73
1911.73 1907.41 1907.41 1903.11 1903.11 1898.81 1898.81 1894.52 1894.52 1890.24
1890.24 1885.97 1885.97 1881.71 1881.71 1877.46 1877.46 1873.22 1873.22 1868.99
1868.99 1864.76 1864.76 1860.55 1860.55 1856.34 1856.34 1852.15 1852.15 1847.96
1847.96 1843.78 1843.78 1839.61 1839.61 1835.45 1835.45 1831.3 1831.3 1827.16
1827.16 1823.03 1823.03 1818.9 1818.9 1814.79 1814.79 1810.68 1810.68 1806.58
1806.58 1802.5 1802.5 1798.42 1798.42 1794.35 1794.35 1790.28 1790.28 1786.23
1786.23 1782.19 1782.19 1778.15 1778.15 1774.13 1774.13 1770.11 1770.11 1766.1
1766.1 1762.1 1762.1 1758.11 1758.11 1754.12 1754.12 1750.15 1750.15 1746.18
1746.18 1742.23 1742.23 1738.28 1738.28 1734.34 1734.34 1730.41 1730.41 1726.49
1726.49 1722.57 1722.57 1718.67 1718.67 1714.77 1714.77 1710.88 1710.88 1707
1707 1703.13 1703.13 1699.27 1699.27 1695.41 1695.41 1691.57 1691.57 1687.73
1687.73 1683.9 1683.9 1680.08 1680.08 1676.27 1676.27 1672.46 1672.46 1668.67
1668.67 1664.88 1664.88 1661.1 1661.1 1657.33 1657.33 1653.56 1653.56 1649.81
1649.81 1646.06 1646.06 1642.33 1642.33 1638.6 1638.6 1634.87 1634.87 1631.16
1631.16 1627.45 1627.45 1623.76 1623.76 1620.07 1620.07 1616.39 1616.39 1612.71
1612.71 1609.05 1609.05 1605.39 1605.39 1601.74 1601.74 1598.1 1598.1 1594.47
1594.47 1590.84 1590.84 1587.22 1587.22 1583.62 1583.62 1580.01 1580.01 1576.42
1576.42 1572.83 1572.83 1569.26 1569.26 1565.69 1565.69 1562.13 1562.13 1558.57
1558.57 1555.02 1555.02 1551.49 1551.49 1547.96 1547.96 1544.43 1544.43 1540.92
1540.92 1537.41 1537.41 1533.91 1533.91 1530.42 1530.42 1526.93 1526.93 1523.46
1523.46 1519.99 1519.99 1516.53 1516.53 1513.07 1513.07 1509.63 1509.63 1506.19
1506.19 1502.76 1502.76 1499.33 1499.33 1495.92 1495.92 1492.51 1492.51 1489.11
1489.11 1485.71 1485.71 1482.33 1482.33 1478.95 1478.95 1475.58 1475.58 1472.21
1472.21 1468.86 1468.86 1465.51 1465.51 1462.17 1462.17 1458.83 1458.83 1455.51
1455.51 1452.19 1452.19 1448.88 1448.88 1445.57 1445.57 1442.27 1442.27 1438.98
1438.98 1435.7 1435.7 1432.43 1432.43 1429.16 1429.16 1425.9 1425.9 1422.64
1422.64 1419.4 1419.4 1416.16 1416.16 1412.92 1412.92 1409.7 1409.7 1406.48
1406.48 1403.27 1403.27 1400.07 1400.07 1396.87 1396.87 1393.68 1393.68 1390.5
1390.5 1387.32 1387.32 1384.15 1384.15 1380.99 1380.99 1377.84 1377.84 1374.69
1374.69 1371.55 1371.55 1368.41 1368.41 1365.29 1365.29 1362.17 1362.17 1359.06
1359.06 1355.95 1355.95 1352.85 1352.85 1349.76 1349.76 1346.67 1346.67 1343.59
1343.59 1340.52 1340.52 1337.46 1337.46 1334.4 1334.4 1331.35 1331.35 1328.3
1328.3 1325.27 1325.27 1322.24 1322.24 1319.21 1319.21 1316.28 1316.28 1313.51
1313.51 1310.82 1310.82 1308.11 1308.11 1305.38 1305.38 1302.63 1302.63 1299.86
1299.86 1297.08 1297.08 1294.28 1294.28 1291.46 1291.46 1288.62 1288.62 1285.76
1285.76 1282.89 1282.89 1279.99 1279.99 1277.08 1277.08 1274.15 1274.15 1271.2
1271.2 1268.24 1268.24 1265.25 1265.25 1262.25 1262.25 1259.23 1259.23 1256.19
1256.19 1253.14 1253.14 1250.06 1250.06 1246.97 1246.97 1243.86 1243.86 1240.73
1240.73 1237.58 1237.58 1234.41 1234.41 1231.23 1231.23 1228.03 1228.03 1224.81
1224.81 1221.57 1221.57 1218.32 1218.32 1215.04 1215.04 1211.75 1211.75 1208.45
1208.45 1205.12 1205.12 1201.78 1201.78 1198.42 1198.42 1195.04 1195.04 1191.64
1191.64 1188.23 1188.23 1184.8 1184.8 1181.35 1181.35 1177.88 1177.88 1174.4
1174.4 1170.9 1170.9 1167.39 1167.39 1163.86 1163.86 1160.31 1160.31 1156.74
1156.74 1153.16 1153.16 1149.56 1149.56 1145.94 1145.94 1142.31 1142.31 1138.66
1138.66 1135 1135 1131.32 1131.32 1127.63 1127.63 1123.92 1123.92 1120.19
1120.19 1116.45 1116.45 1112.69 1112.69 1108.92 1108.92 1105.13 1105.13 1101.33
1101.33 1097.51 1097.51 1093.68 1093.68 1089.83 1089.83 1085.97 1085.97 1082.09
1082.09 1078.2 1078.2 1074.3 1074.3 1070.38 1070.38 1066.45 1066.45 1062.51
1062.51 1058.55 1058.55 1054.58 1054.58 1050.6 1050.6 1046.6 1046.6 1042.59
1042.59 1038.57 1038.57 1034.53 1034.53 1030.49 1030.49 1026.43 1026.43 1022.36
1022.36 1018.28 1018.28 1014.19 1014.19 1010.08 1010.08 1005.97 1005.97 1001.84
1001.84 997.708 997.708 993.561 993.561 989.405 989.405 985.238 985.238 981.062
981.062 976.877 976.877 972.682 972.682 968.477 968.477 964.264 964.264 960.042
960.042 955.812 955.812 951.574 951.574 947.328 947.328 943.073 943.073 938.812
938.812 934.542 934.542 930.266 930.266 925.983 925.983 921.694 921.694 917.397
917.397 913.095 913.095 908.787 908.787 904.473 904.473 900.154 900.154 895.83
895.83 891.5 891.5 887.166 887.166 882.828 882.828 878.485 878.485 874.138
874.138 869.788 869.788 865.434 865.434 861.077 861.077 856.717 856.717 852.355
852.355 847.989 847.989 843.622 843.622 839.253 839.253 834.882 834.882 830.509
830.509 826.136 826.136 821.761 821.761 817.386 817.386 813.01 813.01 808.635
808.635 804.259 804.259 799.884 799.884 795.509 795.509 791.136 791.136 786.762
786.762 782.392 782.392 778.021 778.021 773.654 773.654 769.288 769.288 764.925
764.925 760.564 760.564 756.207 756.207 751.852 751.852 747.501 747.501 743.153
743.153 738.81 738.81 734.47 734.47 730.136 730.136 725.804 725.804 721.48
721.48 717.158 717.158 712.844 712.844 708.534 708.534 704.231 704.231 699.933
699.933 695.643 695.643 691.357 691.357 687.08 687.08 682.809 682.809 678.546
678.546 674.289 674.289 670.042 670.042 665.801 665.801 661.57 661.57 657.345
657.345 653.131 653.131 648.924 648.924 644.728 644.728 640.539 640.539 636.362
636.362 632.191 632.191 628.034 628.034 623.884 623.884 619.747 619.747 615.381
615.381 610.601 610.601 605.651 605.651 600.783 600.783 595.991 595.991 591.277
591.277 586.635 586.635 582.068 582.068 577.568 577.568 573.141 573.141 568.778
568.778 564.484 564.484 560.252 560.252 556.086 556.086 551.978 551.978 547.934
547.934 543.946 543.946 540.018 540.018 536.144 536.144 532.328 532.328 528.563
528.563 524.854 524.854 521.194 521.194 517.588 517.588 514.028 514.028 510.521
510.521 507.057 507.057 503.644 503.644 500.273 500.273 496.95 496.95 493.668
493.668 490.433 490.433 487.236 487.236 484.084 484.084 480.969 480.969 477.898
477.898 474.863 474.863 471.869 471.869 468.909 468.909 465.99 465.99 463.103
463.103 460.256 460.256 457.44 457.44 454.662 454.662 451.914 451.914 449.203
449.203 446.52 446.52 443.873 443.873 441.254 441.254 438.669 438.669 436.111
436.111 433.586 433.586 431.086 431.086 428.619 428.619 426.177 426.177 423.766
423.766 421.378 421.378 419.021 419.021 416.687 416.687 414.382 414.382 412.099
412.099 409.845 409.845 407.611 407.611 405.406 405.406 403.221 403.221 401.063
401.063 398.924 398.924 396.812 396.812 394.718 394.718 392.651 392.651 390.601
390.601 388.576 388.576 386.568 386.568 384.585 384.585 382.619 382.619 380.676
380.676 378.749 378.749 376.846 376.846 374.958 374.958 373.092 373.092 371.241
371.241 369.413 369.413 367.598 367.598 365.806 365.806 364.027 364.027 362.269
362.269 360.524 360.524 358.8 358.8 357.088 357.088 355.397 355.397 353.717
353.717 352.061 352.061 350.398 350.398 348.846 348.846 346.839 346.839 345.296
345.296 
Cx 1 1092 float
-0.328655 -0.328655 -0.324038 -0.324038 -0.314927 -0.314927 -0.306056 -0.306056 -0.297419 -0.297419 -0.28901
-0.28901 -0.280823 -0.280823 -0.272851 -0.272851 -0.26509 -0.26509 -0.257533 -0.257533 -0.250175
-0.250175 -0.243012 -0.243012 -0.236037 -0.236037 -0.229246 -0.229246 -0.222634 -0.222634 -0.216197
-0.216197 -0.209929 -0.209929 -0.203827 -0.203827 -0.197885 -0.197885 -0.1921 -0.1921 -0.186468
-0.186468 -0.180984 -0.180984 -0.175645 -0.175645 -0.170446 -0.170446 -0.165385 -0.165385 -0.160457
-0.160457 -0.155658 -0.155658 -0.150987 -0.150987 -0.146439 -0.146439 -0.14201 -0.14201 -0.137698
-0.137698 -0.1335 -0.1335 -0.129413 -0.129413 -0.125433 -0.125433 -0.121559 -0.121559 -0.117786
-0.117786 -0.114113 -0.114113 -0.110537 -0.110537 -0.107055 -0.107055 -0.103665 -0.103665 -0.100364
-0.100364 -0.0971507 -0.0971507 -0.0940218 -0.0940218 -0.0909753 -0.0909753 -0.0880092 -0.0880092 -0.0851213
-0.0851213 -0.0823095 -0.0823095 -0.0795719 -0.0795719 -0.0769065 -0.0769065 -0.0743113 -0.0743113 -0.0717845
-0.0717845 -0.0693244 -0.0693244 -0.0669291 -0.0669291 -0.064597 -0.064597 -0.0623264 -0.0623264 -0.0601156
-0.0601156 -0.0579632 -0.0579632 -0.0558675 -0.0558675 -0.053827 -0.053827 -0.0518403 -0.0518403 -0.0499061
-0.0499061 -0.0480228 -0.0480228 -0.0461891 -0.0461891 -0.0444039 -0.0444039 -0.0426657 -0.0426657 -0.0409733
-0.0409733 -0.0393255 -0.0393255 -0.0377212 -0.0377212 -0.0361592 -0.0361592 -0.0346384 -0.0346384 -0.0331576
-0.0331576 -0.031716 -0.031716 -0.0303213 -0.0303213 -0.0289743 -0.0289743 -0.0276501 -0.0276501 -0.026332
-0.026332 -0.0250199 -0.0250199 -0.0237138 -0.0237138 -0.0224136 -0.0224136 -0.0211194 -0.0211194 -0.0198311
-0.0198311 -0.0185487 -0.0185487 -0.0172722 -0.0172722 -0.0160015 -0.0160015 -0.0147366 -0.0147366 -0.0134775
-0.0134775 -0.0122242 -0.0122242 -0.0109765 -0.0109765 -0.0097346 -0.0097346 -0.00849835 -0.00849835 -0.00726775
-0.00726775 -0.00604277 -0.00604277 -0.0048234 -0.0048234 -0.00360959 -0.00360959 -0.00240134 -0.00240134 -0.0011986
-0.0011986 -5.64468e-05 -5.64468e-05 0.00097199 0.00097199 0.0019457 0.0019457 0.00292171 0.00292171 0.00390002
0.00390002 0.00488064 0.00488064 0.00586358 0.00586358 0.00684883 0.00684883 0.00783642 0.00783642 0.00882633
0.00882633 0.00981858 0.00981858 0.0108132 0.0108132 0.0118101 0.0118101 0.0128094 0.0128094 0.013811
0.013811 0.0148151 0.0148151 0.0158214 0.0158214 0.0168302 0.0168302 0.0178413 0.0178413 0.0188549
0.0188549 0.0198708 0.0198708 0.0208891 0.0208891 0.0219098 0.0219098 0.0229329 0.0229329 0.0239585
0.0239585 0.0249864 0.0249864 0.0260168 0.0260168 0.0270496 0.0270496 0.0280849 0.0280849 0.0291226
0.0291226 0.0301628 0.0301628 0.0312054 0.0312054 0.0322504 0.0322504 0.033298 0.033298 0.034348
0.034348 0.0354004 0.0354004 0.0364554 0.0364554 0.0375129 0.0375129 0.0385728 0.0385728 0.0396353
0.0396353 0.0407002 0.0407002 0.0417677 0.0417677 0.0428377 0.0428377 0.0439102 0.0439102 0.0449853
0.0449853 0.0460629 0.0460629 0.047143 0.047143 0.0482257 0.0482257 0.0493109 0.0493109 0.0503987
0.0503987 0.0514891 0.0514891 0.052582 0.052582 0.0536775 0.0536775 0.0547756 0.0547756 0.0558763
0.0558763 0.0569796 0.0569796 0.0580855 0.0580855 0.059194 0.059194 0.0603051 0.0603051 0.0614189
0.0614189 0.0625353 0.0625353 0.0636543 0.0636543 0.0647759 0.0647759 0.0659002 0.0659002 0.0670272
0.0670272 0.0681568 0.0681568 0.0692891 0.0692891 0.070424 0.070424 0.0715616 0.0715616 0.0727019
0.0727019 0.0738449 0.0738449 0.0749906 0.0749906 0.076139 0.076139 0.0772902 0.0772902 0.078444
0.078444 0.0796005 0.0796005 0.0807598 0.0807598 0.0819219 0.0819219 0.0830866 0.0830866 0.0842541
0.0842541 0.0854244 0.0854244 0.0865974 0.0865974 0.0877732 0.0877732 0.0889518 0.0889518 0.0901332
0.0901332 0.0913173 0.0913173 0.0925042 0.0925042 0.093694 0.093694 0.0948865 0.0948865 0.0960819
0.0960819 0.0972801 0.0972801 0.0984811 0.0984811 0.0996849 0.0996849 0.100892 0.100892 0.102101
0.102101 0.103314 0.103314 0.104529 0.104529 0.105747 0.105747 0.106968 0.106968 0.108192
0.108192 0.109419 0.109419 0.110648 0.110648 0.111881 0.111881 0.113116 0.113116 0.114355
0.114355 0.115596 0.115596 0.11684 0.11684 0.118087 0.118087 0.119337 0.119337 0.120591
0.120591 0.121847 0.121847 0.123106 0.123106 0.124368 0.124368 0.125632 0.125632 0.1269
0.1269 0.128171 0.128171 0.129445 0.129445 0.130722 0.130722 0.132002 0.132002 0.133285
0.133285 0.134571 0.134571 0.13586 0.13586 0.137152 0.137152 0.138447 0.138447 0.139745
0.139745 0.141047 0.141047 0.142351 0.142351 0.143658 0.143658 0.144969 0.144969 0.146282
0.146282 0.147599 0.147599 0.148919 0.148919 0.150242 0.150242 0.151568 0.151568 0.152897
0.152897 0.154229 0.154229 0.155565 0.155565 0.156903 0.156903 0.158245 0.158245 0.15959
0.15959 0.160938 0.160938 0.162289 0.162289 0.163643 0.163643 0.165001 0.165001 0.166362
0.166362 0.167726 0.167726 0.169093 0.169093 0.170464 0.170464 0.171838 0.171838 0.173214
0.173214 0.174595 0.174595 0.175978 0.175978 0.177365 0.177365 0.178755 0.178755 0.180148
0.180148 0.181545 0.181545 0.182945 0.182945 0.184348 0.184348 0.185754 0.185754 0.187164
0.187164 0.188577 0.188577 0.189994 0.189994 0.191414 0.191414 0.192837 0.192837 0.194263
0.194263 0.195693 0.195693 0.197127 0.197127 0.198563 0.198563 0.200003 0.200003 0.201447
0.201447 0.202894 0.202894 0.204344 0.204344 0.205798 0.205798 0.207214 0.207214 0.208555
0.208555 0.209867 0.209867 0.211193 0.211193 0.212533 0.212533 0.213888 0.213888 0.215258
0.215258 0.216643 0.216643 0.218042 0.218042 0.219457 0.219457 0.220887 0.220887 0.222333
0.222333 0.223795 0.223795 0.225272 0.225272 0.226766 0.226766 0.228275 0.228275 0.229801
0.229801 0.231344 0.231344 0.232904 0.232904 0.23448 0.23448 0.236073 0.236073 0.237684
0.237684 0.239313 0.239313 0.240959 0.240959 0.242623 0.242623 0.244305 0.244305 0.246005
0.246005 0.247724 0.247724 0.249461 0.249461 0.251218 0.251218 0.252993 0.252993 0.254788
0.254788 0.256602 0.256602 0.258436 0.258436 0.26029 0.26029 0.262164 0.262164 0.264059
0.264059 0.265974 0.265974 0.26791 0.26791 0.269867 0.269867 0.271845 0.271845 0.273844
0.273844 0.275866 0.275866 0.277909 0.277909 0.279975 0.279975 0.282063 0.282063 0.284174
0.284174 0.286307 0.286307 0.288464 0.288464 0.290644 0.290644 0.292849 0.292849 0.295076
0.295076 0.297329 0.297329 0.299605 0.299605 0.301907 0.301907 0.304233 0.304233 0.306585
0.306585 0.308962 0.308962 0.311365 0.311365 0.313794 0.313794 0.31625 0.31625 0.318732
0.318732 0.321242 0.321242 0.323778 0.323778 0.326342 0.326342 0.328935 0.328935 0.331555
0.331555 0.334203 0.334203 0.336881 0.336881 0.339587 0.339587 0.342323 0.342323 0.345089
0.345089 0.347885 0.347885 0.350711 0.350711 0.353568 0.353568 0.356456 0.356456 0.359375
0.359375 0.362326 0.362326 0.365309 0.365309 0.368325 0.368325 0.371373 0.371373 0.374455
0.374455 0.37757 0.37757 0.380719 0.380719 0.383902 0.383902 0.387119 0.387119 0.390372
0.390372 0.39366 0.39366 0.396984 0.396984 0.400343 0.400343 0.40374 0.40374 0.407173
0.407173 0.410644 0.410644 0.414152 0.414152 0.417698 0.417698 0.421283 0.421283 0.424907
0.424907 0.428571 0.428571 0.432274 0.432274 0.436017 0.436017 0.439801 0.439801 0.443627
0.443627 0.447493 0.447493 0.451402 0.451402 0.455354 0.455354 0.459348 0.459348 0.463386
0.463386 0.467467 0.467467 0.471593 0.471593 0.475764 0.475764 0.47998 0.47998 0.484242
0.484242 0.48855 0.48855 0.492905 0.492905 0.497308 0.497308 0.501758 0.501758 0.506257
0.506257 0.510804 0.510804 0.515401 0.515401 0.520048 0.520048 0.524746 0.524746 0.529494
0.529494 0.534294 0.534294 0.539147 0.539147 0.544052 0.544052 0.54901 0.54901 0.554022
0.554022 0.559089 0.559089 0.564211 0.564211 0.569388 0.569388 0.574622 0.574622 0.579913
0.579913 0.585261 0.585261 0.590667 0.590667 0.596132 0.596132 0.601657 0.601657 0.607241
0.607241 0.612886 0.612886 0.618593 0.618593 0.624361 0.624361 0.630193 0.630193 0.636087
0.636087 0.642046 0.642046 0.64807 0.64807 0.654158 0.654158 0.660314 0.660314 0.666536
0.666536 0.672825 0.672825 0.679183 0.679183 0.68561 0.68561 0.692107 0.692107 0.698675
0.698675 0.705314 0.705314 0.712025 0.712025 0.718809 0.718809 0.725667 0.725667 0.7326
0.7326 0.739607 0.739607 0.746691 0.746691 0.753852 0.753852 0.761091 0.761091 0.768408
0.768408 0.775805 0.775805 0.783283 0.783283 0.790841 0.790841 0.798482 0.798482 0.806206
0.806206 0.814014 0.814014 0.821906 0.821906 0.829885 0.829885 0.83795 0.83795 0.846103
0.846103 0.854344 0.854344 0.862675 0.862675 0.871097 0.871097 0.87961 0.87961 0.888215
0.888215 0.896914 0.896914 0.905708 0.905708 0.914597 0.914597 0.923583 0.923583 0.933175
0.933175 0.943878 0.943878 0.955113 0.955113 0.966349 0.966349 0.977584 0.977584 0.988819
0.988819 1.00005 1.00005 1.01129 1.01129 1.02253 1.02253 1.03376 1.03376 1.045
1.045 1.05623 1.05623 1.06747 1.06747 1.0787 1.0787 1.08994 1.08994 1.10117
1.10117 1.11241 1.11241 1.12364 1.12364 1.13488 1.13488 1.14611 1.14611 1.15735
1.15735 1.16858 1.16858 1.17982 1.17982 1.19106 1.19106 1.20229 1.20229 1.21353
1.21353 1.22476 1.22476 1.236 1.236 1.24723 1.24723 1.25847 1.25847 1.2697
1.2697 1.28094 1.28094 1.29217 1.29217 1.30341 1.30341 1.31464 1.31464 1.32588
1.32588 1.33711 1.33711 1.34835 1.34835 1.35959 1.35959 1.37082 1.37082 1.38206
1.38206 1.39329 1.39329 1.40453 1.40453 1.41576 1.41576 1.427 1.427 1.43823
1.43823 1.44947 1.44947 1.4607 1.4607 1.47194 1.47194 1.48317 1.48317 1.49441
1.49441 1.50564 1.50564 1.51688 1.51688 1.52812 1.52812 1.53935 1.53935 1.55059
1.55059 1.56182 1.56182 1.57306 1.57306 1.58429 1.58429 1.59553 1.59553 1.60676
1.60676 1.618 1.618 1.62923 1.62923 1.64047 1.64047 1.6517 1.6517 1.66294
1.66294 1.67418 1.67418 1.68541 1.68541 1.69665 1.69665 1.70788 1.70788 1.71912
1.71912 1.73035 1.73035 1.74159 1.74159 1.75282 1.75282 1.76406 1.76406 1.77529
1.77529 1.78653 1.78653 1.79776 1.79776 1.809 1.809 1.82023 1.82023 1.83147
1.83147 1.84271 1.84271 1.85394 1.85394 1.86518 1.86518 1.87641 1.87641 1.88765
1.88765 1.89888 1.89888 1.91012 1.91012 1.92135 1.92135 1.93259 1.93259 1.94382
1.94382 1.95506 1.95506 1.96629 1.96629 1.97753 1.97753 1.98876 1.98876 1.99438
1.99438 
yPlus 1 1092 float
0.059315 0.059315 0.0807981 0.0807981 0.116745 0.116745 0.142726 0.142726 0.163987 0.163987 0.182263
0.182263 0.198411 0.198411 0.212931 0.212931 0.22615 0.22615 0.238294 0.238294 0.249529
0.249529 0.25998 0.25998 0.269746 0.269746 0.278907 0.278907 0.287526 0.287526 0.295658
0.295658 0.303348 0.303348 0.310635 0.310635 0.317551 0.317551 0.324127 0.324127 0.330387
0.330387 0.336354 0.336354 0.34205 0.34205 0.34749 0.34749 0.352693 0.352693 0.357672
0.357672 0.362441 0.362441 0.367012 0.367012 0.371397 0.371397 0.375605 0.375605 0.379646
0.379646 0.38353 0.38353 0.387263 0.387263 0.390854 0.390854 0.394309 0.394309 0.397635
0.397635 0.400839 0.400839 0.403926 0.403926 0.4069 0.4069 0.409768 0.409768 0.412535
0.412535 0.415203 0.415203 0.417779 0.417779 0.420265 0.420265 0.422666 0.422666 0.424984
0.424984 0.427224 0.427224 0.429389 0.429389 0.431481 0.431481 0.433504 0.433504 0.435459
0.435459 0.437351 0.437351 0.439181 0.439181 0.440951 0.440951 0.442664 0.442664 0.444323
0.444323 0.445928 0.445928 0.447482 0.447482 0.448987 0.448987 0.450445 0.450445 0.451857
0.451857 0.453225 0.453225 0.454551 0.454551 0.455835 0.455835 0.45708 0.45708 0.458287
0.458287 0.459457 0.459457 0.460591 0.460591 0.461691 0.461691 0.462758 0.462758 0.463792
0.463792 0.464796 0.464796 0.465763 0.465763 0.466694 0.466694 0.467606 0.467606 0.468511
0.468511 0.469408 0.469408 0.470299 0.470299 0.471182 0.471182 0.472059 0.472059 0.472928
0.472928 0.473791 0.473791 0.474648 0.474648 0.475497 0.475497 0.47634 0.47634 0.477176
0.477176 0.478006 0.478006 0.47883 0.47883 0.479647 0.479647 0.480458 0.480458 0.481262
0.481262 0.482061 0.482061 0.482853 0.482853 0.483639 0.483639 0.48442 0.48442 0.485194
0.485194 0.485927 0.485927 0.486586 0.486586 0.487207 0.487207 0.487829 0.487829 0.488451
0.488451 0.489072 0.489072 0.489694 0.489694 0.490315 0.490315 0.490937 0.490937 0.491558
0.491558 0.492179 0.492179 0.4928 0.4928 0.493421 0.493421 0.494042 0.494042 0.494663
0.494663 0.495283 0.495283 0.495904 0.495904 0.496524 0.496524 0.497145 0.497145 0.497765
0.497765 0.498385 0.498385 0.499005 0.499005 0.499625 0.499625 0.500244 0.500244 0.500864
0.500864 0.501483 0.501483 0.502103 0.502103 0.502722 0.502722 0.503341 0.503341 0.503959
0.503959 0.504578 0.504578 0.505196 0.505196 0.505815 0.505815 0.506433 0.506433 0.507051
0.507051 0.507668 0.507668 0.508286 0.508286 0.508903 0.508903 0.509521 0.509521 0.510138
0.510138 0.510754 0.510754 0.511371 0.511371 0.511987 0.511987 0.512603 0.512603 0.513219
0.513219 0.513835 0.513835 0.51445 0.51445 0.515066 0.515066 0.515681 0.515681 0.516295
0.516295 0.51691 0.51691 0.517524 0.517524 0.518138 0.518138 0.518752 0.518752 0.519365
0.519365 0.519978 0.519978 0.520591 0.520591 0.521204 0.521204 0.521816 0.521816 0.522428
0.522428 0.52304 0.52304 0.523651 0.523651 0.524263 0.524263 0.524873 0.524873 0.525484
0.525484 0.526094 0.526094 0.526704 0.526704 0.527314 0.527314 0.527923 0.527923 0.528532
0.528532 0.52914 0.52914 0.529748 0.529748 0.530356 0.530356 0.530964 0.530964 0.531571
0.531571 0.532178 0.532178 0.532784 0.532784 0.53339 0.53339 0.533996 0.533996 0.534601
0.534601 0.535206 0.535206 0.53581 0.53581 0.536414 0.536414 0.537018 0.537018 0.537621
0.537621 0.538224 0.538224 0.538826 0.538826 0.539428 0.539428 0.54003 0.54003 0.540631
0.540631 0.541231 0.541231 0.541831 0.541831 0.542431 0.542431 0.54303 0.54303 0.543629
0.543629 0.544227 0.544227 0.544825 0.544825 0.545422 0.545422 0.546019 0.546019 0.546616
0.546616 0.547211 0.547211 0.547807 0.547807 0.548402 0.548402 0.548996 0.548996 0.54959
0.54959 0.550183 0.550183 0.550775 0.550775 0.551368 0.551368 0.551959 0.551959 0.55255
0.55255 0.553141 0.553141 0.55373 0.55373 0.55432 0.55432 0.554908 0.554908 0.555497
0.555497 0.556084 0.556084 0.556671 0.556671 0.557257 0.557257 0.557843 0.557843 0.558428
0.558428 0.559013 0.559013 0.559596 0.559596 0.56018 0.56018 0.560762 0.560762 0.561344
0.561344 0.561925 0.561925 0.562506 0.562506 0.563086 0.563086 0.563665 0.563665 0.564243
0.564243 0.564821 0.564821 0.565399 0.565399 0.565975 0.565975 0.566551 0.566551 0.567126
0.567126 0.5677 0.5677 0.568274 0.568274 0.568846 0.568846 0.569419 0.569419 0.56999
0.56999 0.57056 0.57056 0.57113 0.57113 0.571699 0.571699 0.572268 0.572268 0.572835
0.572835 0.573402 0.573402 0.573968 0.573968 0.574533 0.574533 0.575097 0.575097 0.575661
0.575661 0.576223 0.576223 0.576785 0.576785 0.577346 0.577346 0.577906 0.577906 0.578466
0.578466 0.579024 0.579024 0.579582 0.579582 0.580138 0.580138 0.580694 0.580694 0.581249
0.581249 0.581803 0.581803 0.582356 0.582356 0.582908 0.582908 0.58346 0.58346 0.58401
0.58401 0.58456 0.58456 0.585108 0.585108 0.585656 0.585656 0.586202 0.586202 0.586748
0.586748 0.587293 0.587293 0.587836 0.587836 0.588379 0.588379 0.588906 0.588906 0.589402
0.589402 0.589886 0.589886 0.590374 0.590374 0.590864 0.590864 0.591359 0.591359 0.591856
0.591856 0.592357 0.592357 0.592861 0.592861 0.593369 0.593369 0.59388 0.59388 0.594395
0.594395 0.594913 0.594913 0.595434 0.595434 0.595959 0.595959 0.596487 0.596487 0.597018
0.597018 0.597553 0.597553 0.598091 0.598091 0.598632 0.598632 0.599177 0.599177 0.599725
0.599725 0.600277 0.600277 0.600831 0.600831 0.601389 0.601389 0.60195 0.60195 0.602514
0.602514 0.603082 0.603082 0.603653 0.603653 0.604226 0.604226 0.604803 0.604803 0.605384
0.605384 0.605967 0.605967 0.606553 0.606553 0.607142 0.607142 0.607735 0.607735 0.60833
0.60833 0.608928 0.608928 0.609529 0.609529 0.610134 0.610134 0.61074 0.61074 0.61135
0.61135 0.611963 0.611963 0.612578 0.612578 0.613196 0.613196 0.613817 0.613817 0.61444
0.61444 0.615066 0.615066 0.615694 0.615694 0.616325 0.616325 0.616958 0.616958 0.617593
0.617593 0.618231 0.618231 0.618871 0.618871 0.619514 0.619514 0.620158 0.620158 0.620804
0.620804 0.621453 0.621453 0.622104 0.622104 0.622756 0.622756 0.62341 0.62341 0.624066
0.624066 0.624724 0.624724 0.625383 0.625383 0.626044 0.626044 0.626706 0.626706 0.62737
0.62737 0.628034 0.628034 0.6287 0.6287 0.629368 0.629368 0.630036 0.630036 0.630705
0.630705 0.631375 0.631375 0.632046 0.632046 0.632717 0.632717 0.633389 0.633389 0.634062
0.634062 0.634735 0.634735 0.635408 0.635408 0.636081 0.636081 0.636754 0.636754 0.637428
0.637428 0.638101 0.638101 0.638773 0.638773 0.639446 0.639446 0.640117 0.640117 0.640788
0.640788 0.641459 0.641459 0.642128 0.642128 0.642797 0.642797 0.643464 0.643464 0.64413
0.64413 0.644794 0.644794 0.645457 0.645457 0.646118 0.646118 0.646778 0.646778 0.647435
0.647435 0.64809 0.64809 0.648743 0.648743 0.649394 0.649394 0.650042 0.650042 0.650687
0.650687 0.65133 0.65133 0.651969 0.651969 0.652605 0.652605 0.653238 0.653238 0.653867
0.653867 0.654492 0.654492 0.655114 0.655114 0.655732 0.655732 0.656345 0.656345 0.656955
0.656955 0.657559 0.657559 0.658159 0.658159 0.658754 0.658754 0.659345 0.659345 0.65993
0.65993 0.660509 0.660509 0.661083 0.661083 0.661651 0.661651 0.662214 0.662214 0.66277
0.66277 0.66332 0.66332 0.663864 0.663864 0.664401 0.664401 0.664932 0.664932 0.665455
0.665455 0.665971 0.665971 0.66648 0.66648 0.666982 0.666982 0.667476 0.667476 0.667962
0.667962 0.66844 0.66844 0.66891 0.66891 0.669371 0.669371 0.669824 0.669824 0.670269
0.670269 0.670705 0.670705 0.671131 0.671131 0.671549 0.671549 0.671957 0.671957 0.672356
0.672356 0.672745 0.672745 0.673124 0.673124 0.673494 0.673494 0.673853 0.673853 0.674202
0.674202 0.674541 0.674541 0.67487 0.67487 0.675188 0.675188 0.675495 0.675495 0.675791
0.675791 0.676076 0.676076 0.67635 0.67635 0.676614 0.676614 0.676865 0.676865 0.677106
0.677106 0.677335 0.677335 0.677552 0.677552 0.677758 0.677758 0.677951 0.677951 0.678134
0.678134 0.678304 0.678304 0.678462 0.678462 0.678608 0.678608 0.678743 0.678743 0.678865
0.678865 0.678975 0.678975 0.679073 0.679073 0.679159 0.679159 0.679233 0.679233 0.679294
0.679294 0.679343 0.679343 0.67938 0.67938 0.679405 0.679405 0.679418 0.679418 0.679419
0.679419 0.679408 0.679408 0.679384 0.679384 0.679349 0.679349 0.679302 0.679302 0.679239
0.679239 0.679154 0.679154 0.67905 0.67905 0.678931 0.678931 0.678797 0.678797 0.67865
0.67865 0.678491 0.678491 0.678319 0.678319 0.678135 0.678135 0.677941 0.677941 0.677737
0.677737 0.677523 0.677523 0.6773 0.6773 0.677068 0.677068 0.676829 0.676829 0.676582
0.676582 0.676329 0.676329 0.676069 0.676069 0.675803 0.675803 0.675532 0.675532 0.675256
0.675256 0.674976 0.674976 0.674691 0.674691 0.674403 0.674403 0.674112 0.674112 0.673817
0.673817 0.673521 0.673521 0.673222 0.673222 0.672921 0.672921 0.672618 0.672618 0.672315
0.672315 0.672011 0.672011 0.671706 0.671706 0.671401 0.671401 0.671096 0.671096 0.670791
0.670791 0.670487 0.670487 0.670183 0.670183 0.669881 0.669881 0.66958 0.66958 0.66928
0.66928 0.668983 0.668983 0.668687 0.668687 0.668394 0.668394 0.668103 0.668103 0.667814
0.667814 0.667529 0.667529 0.667246 0.667246 0.666967 0.666967 0.666691 0.666691 0.666418
0.666418 0.66615 0.66615 0.665885 0.665885 0.665624 0.665624 0.665368 0.665368 0.665115
0.665115 0.664868 0.664868 0.664625 0.664625 0.664387 0.664387 0.664153 0.664153 0.663925
0.663925 0.663702 0.663702 0.663484 0.663484 0.663272 0.663272 0.663065 0.663065 0.662864
0.662864 0.662668 0.662668 0.662479 0.662479 0.662295 0.662295 0.662117 0.662117 0.661946
0.661946 0.661781 0.661781 0.661622 0.661622 0.661469 0.661469 0.661323 0.661323 0.661184
0.661184 0.661051 0.661051 0.660925 0.660925 0.660805 0.660805 0.660693 0.660693 0.660587
0.660587 0.660488 0.660488 0.660397 0.660397 0.660312 0.660312 0.660234 0.660234 0.660164
0.660164 0.660101 0.660101 0.660044 0.660044 0.659995 0.659995 0.659954 0.659954 0.659919
0.659919 0.659892 0.659892 0.659872 0.659872 0.65986 0.65986 0.659854 0.659854 0.659853
0.659853 
wallShearStress 3 1092 float
1.95886e-08 -2.58993e-08 0 1.95886e-08 -2.58993e-08 0 1.95856e-08 -4.91751e-08 0 1.95856e-08 -4.91751e-08
0 1.95771e-08 -9.66475e-08 0 1.95771e-08 -9.66475e-08 0 1.9564e-08 -1.44345e-07 0
1.9564e-08 -1.44345e-07 0 1.95466e-08 -1.90343e-07 0 1.95466e-08 -1.90343e-07 0 1.95254e-08
-2.34629e-07 0 1.95254e-08 -2.34629e-07 0 1.95008e-08 -2.77677e-07 0 1.95008e-08 -2.77677e-07
0 1.94731e-08 -3.19663e-07 0 1.94731e-08 -3.19663e-07 0 1.94425e-08 -3.60531e-07 0
1.94425e-08 -3.60531e-07 0 1.94091e-08 -4.00235e-07 0 1.94091e-08 -4.00235e-07 0 1.93734e-08
-4.38801e-07 0 1.93734e-08 -4.38801e-07 0 1.93355e-08 -4.76277e-07 0 1.93355e-08 -4.76277e-07
0 1.92957e-08 -5.12696e-07 0 1.92957e-08 -5.12696e-07 0 1.92541e-08 -5.48082e-07 0
1.92541e-08 -5.48082e-07 0 1.92109e-08 -5.82458e-07 0 1.92109e-08 -5.82458e-07 0 1.91663e-08
-6.1585e-07 0 1.91663e-08 -6.1585e-07 0 1.91205e-08 -6.48285e-07 0 1.91205e-08 -6.48285e-07
0 1.90736e-08 -6.79788e-07 0 1.90736e-08 -6.79788e-07 0 1.90257e-08 -7.10384e-07 0
1.90257e-08 -7.10384e-07 0 1.89771e-08 -7.40097e-07 0 1.89771e-08 -7.40097e-07 0 1.89278e-08
-7.68952e-07 0 1.89278e-08 -7.68952e-07 0 1.8878e-08 -7.96973e-07 0 1.8878e-08 -7.96973e-07
0 1.88277e-08 -8.24183e-07 0 1.88277e-08 -8.24183e-07 0 1.87771e-08 -8.50604e-07 0
1.87771e-08 -8.50604e-07 0 1.87263e-08 -8.76259e-07 0 1.87263e-08 -8.76259e-07 0 1.86752e-08
-9.01169e-07 0 1.86752e-08 -9.01169e-07 0 1.86242e-08 -9.25357e-07 0 1.86242e-08 -9.25357e-07
0 1.85731e-08 -9.48842e-07 0 1.85731e-08 -9.48842e-07 0 1.85221e-08 -9.71645e-07 0
1.85221e-08 -9.71645e-07 0 1.84713e-08 -9.93785e-07 0 1.84713e-08 -9.93785e-07 0 1.84206e-08
-1.01528e-06 0 1.84206e-08 -1.01528e-06 0 1.83703e-08 -1.03616e-06 0 1.83703e-08 -1.03616e-06
0 1.83202e-08 -1.05642e-06 0 1.83202e-08 -1.05642e-06 0 1.82705e-08 -1.0761e-06 0
1.82705e-08 -1.0761e-06 0 1.82212e-08 -1.09521e-06 0 1.82212e-08 -1.09521e-06 0 1.81723e-08
-1.11377e-06 0 1.81723e-08 -1.11377e-06 0 1.81239e-08 -1.13178e-06 0 1.81239e-08 -1.13178e-06
0 1.8076e-08 -1.14928e-06 0 1.8076e-08 -1.14928e-06 0 1.80286e-08 -1.16627e-06 0
1.80286e-08 -1.16627e-06 0 1.79818e-08 -1.18277e-06 0 1.79818e-08 -1.18277e-06 0 1.79356e-08
-1.19879e-06 0 1.79356e-08 -1.19879e-06 0 1.789e-08 -1.21435e-06 0 1.789e-08 -1.21435e-06
0 1.7845e-08 -1.22946e-06 0 1.7845e-08 -1.22946e-06 0 1.78006e-08 -1.24413e-06 0
1.78006e-08 -1.24413e-06 0 1.77569e-08 -1.25839e-06 0 1.77569e-08 -1.25839e-06 0 1.77138e-08
-1.27223e-06 0 1.77138e-08 -1.27223e-06 0 1.76714e-08 -1.28568e-06 0 1.76714e-08 -1.28568e-06
0 1.76297e-08 -1.29874e-06 0 1.76297e-08 -1.29874e-06 0 1.75887e-08 -1.31142e-06 0
1.75887e-08 -1.31142e-06 0 1.75484e-08 -1.32374e-06 0 1.75484e-08 -1.32374e-06 0 1.75087e-08
-1.33572e-06 0 1.75087e-08 -1.33572e-06 0 1.74698e-08 -1.34734e-06 0 1.74698e-08 -1.34734e-06
0 1.74315e-08 -1.35864e-06 0 1.74315e-08 -1.35864e-06 0 1.7394e-08 -1.36962e-06 0
1.7394e-08 -1.36962e-06 0 1.73571e-08 -1.38028e-06 0 1.73571e-08 -1.38028e-06 0 1.73209e-08
-1.39064e-06 0 1.73209e-08 -1.39064e-06 0 1.72855e-08 -1.40071e-06 0 1.72855e-08 -1.40071e-06
0 1.72507e-08 -1.41049e-06 0 1.72507e-08 -1.41049e-06 0 1.72166e-08 -1.41999e-06 0
1.72166e-08 -1.41999e-06 0 1.71831e-08 -1.42923e-06 0 1.71831e-08 -1.42923e-06 0 1.71504e-08
-1.4382e-06 0 1.71504e-08 -1.4382e-06 0 1.71183e-08 -1.44692e-06 0 1.71183e-08 -1.44692e-06
0 1.70868e-08 -1.4554e-06 0 1.70868e-08 -1.4554e-06 0 1.7056e-08 -1.46364e-06 0
1.7056e-08 -1.46364e-06 0 1.70259e-08 -1.47164e-06 0 1.70259e-08 -1.47164e-06 0 1.69964e-08
-1.47942e-06 0 1.69964e-08 -1.47942e-06 0 1.69675e-08 -1.48699e-06 0 1.69675e-08 -1.48699e-06
0 1.69392e-08 -1.49434e-06 0 1.69392e-08 -1.49434e-06 0 1.69116e-08 -1.50148e-06 0
1.69116e-08 -1.50148e-06 0 1.68846e-08 -1.50843e-06 0 1.68846e-08 -1.50843e-06 0 1.68581e-08
-1.51518e-06 0 1.68581e-08 -1.51518e-06 0 1.68323e-08 -1.52174e-06 0 1.68323e-08 -1.52174e-06
0 1.68072e-08 -1.52808e-06 0 1.68072e-08 -1.52808e-06 0 1.67827e-08 -1.53421e-06 0
1.67827e-08 -1.53421e-06 0 1.67585e-08 -1.54021e-06 0 1.67585e-08 -1.54021e-06 0 1.67344e-08
-1.54616e-06 0 1.67344e-08 -1.54616e-06 0 1.67104e-08 -1.55209e-06 0 1.67104e-08 -1.55209e-06
0 1.66864e-08 -1.55799e-06 0 1.66864e-08 -1.55799e-06 0 1.66625e-08 -1.56385e-06 0
1.66625e-08 -1.56385e-06 0 1.66385e-08 -1.56967e-06 0 1.66385e-08 -1.56967e-06 0 1.66146e-08
-1.57546e-06 0 1.66146e-08 -1.57546e-06 0 1.65907e-08 -1.58122e-06 0 1.65907e-08 -1.58122e-06
0 1.65668e-08 -1.58694e-06 0 1.65668e-08 -1.58694e-06 0 1.6543e-08 -1.59262e-06 0
1.6543e-08 -1.59262e-06 0 1.65192e-08 -1.59827e-06 0 1.65192e-08 -1.59827e-06 0 1.64954e-08
-1.60389e-06 0 1.64954e-08 -1.60389e-06 0 1.64716e-08 -1.60947e-06 0 1.64716e-08 -1.60947e-06
0 1.64479e-08 -1.61502e-06 0 1.64479e-08 -1.61502e-06 0 1.64242e-08 -1.62054e-06 0
1.64242e-08 -1.62054e-06 0 1.64005e-08 -1.62602e-06 0 1.64005e-08 -1.62602e-06 0 1.63769e-08
-1.63147e-06 0 1.63769e-08 -1.63147e-06 0 1.63533e-08 -1.63689e-06 0 1.63533e-08 -1.63689e-06
0 1.63297e-08 -1.64228e-06 0 1.63297e-08 -1.64228e-06 0 1.63062e-08 -1.64763e-06 0
1.63062e-08 -1.64763e-06 0 1.62826e-08 -1.65295e-06 0 1.62826e-08 -1.65295e-06 0 1.62595e-08
-1.65822e-06 0 1.62595e-08 -1.65822e-06 0 1.62378e-08 -1.66323e-06 0 1.62378e-08 -1.66323e-06
0 1.62174e-08 -1.66779e-06 0 1.62174e-08 -1.66779e-06 0 1.61976e-08 -1.67207e-06 0
1.61976e-08 -1.67207e-06 0 1.61782e-08 -1.6763e-06 0 1.61782e-08 -1.6763e-06 0 1.61588e-08
-1.68057e-06 0 1.61588e-08 -1.68057e-06 0 1.61394e-08 -1.68485e-06 0 1.61394e-08 -1.68485e-06
0 1.61198e-08 -1.68914e-06 0 1.61198e-08 -1.68914e-06 0 1.61002e-08 -1.69343e-06 0
1.61002e-08 -1.69343e-06 0 1.60805e-08 -1.69773e-06 0 1.60805e-08 -1.69773e-06 0 1.60607e-08
-1.70202e-06 0 1.60607e-08 -1.70202e-06 0 1.60408e-08 -1.70633e-06 0 1.60408e-08 -1.70633e-06
0 1.60208e-08 -1.71064e-06 0 1.60208e-08 -1.71064e-06 0 1.60007e-08 -1.71495e-06 0
1.60007e-08 -1.71495e-06 0 1.59805e-08 -1.71927e-06 0 1.59805e-08 -1.71927e-06 0 1.59603e-08
-1.72359e-06 0 1.59603e-08 -1.72359e-06 0 1.59399e-08 -1.72792e-06 0 1.59399e-08 -1.72792e-06
0 1.59194e-08 -1.73225e-06 0 1.59194e-08 -1.73225e-06 0 1.58988e-08 -1.73659e-06 0
1.58988e-08 -1.73659e-06 0 1.58782e-08 -1.74093e-06 0 1.58782e-08 -1.74093e-06 0 1.58574e-08
-1.74528e-06 0 1.58574e-08 -1.74528e-06 0 1.58366e-08 -1.74963e-06 0 1.58366e-08 -1.74963e-06
0 1.58156e-08 -1.75399e-06 0 1.58156e-08 -1.75399e-06 0 1.57946e-08 -1.75835e-06 0
1.57946e-08 -1.75835e-06 0 1.57734e-08 -1.76271e-06 0 1.57734e-08 -1.76271e-06 0 1.57522e-08
-1.76708e-06 0 1.57522e-08 -1.76708e-06 0 1.57308e-08 -1.77145e-06 0 1.57308e-08 -1.77145e-06
0 1.57094e-08 -1.77583e-06 0 1.57094e-08 -1.77583e-06 0 1.56878e-08 -1.78021e-06 0
1.56878e-08 -1.78021e-06 0 1.56662e-08 -1.7846e-06 0 1.56662e-08 -1.7846e-06 0 1.56445e-08
-1.78899e-06 0 1.56445e-08 -1.78899e-06 0 1.56226e-08 -1.79338e-06 0 1.56226e-08 -1.79338e-06
0 1.56007e-08 -1.79778e-06 0 1.56007e-08 -1.79778e-06 0 1.55787e-08 -1.80219e-06 0
1.55787e-08 -1.80219e-06 0 1.55565e-08 -1.80659e-06 0 1.55565e-08 -1.80659e-06 0 1.55343e-08
-1.811e-06 0 1.55343e-08 -1.811e-06 0 1.55119e-08 -1.81542e-06 0 1.55119e-08 -1.81542e-06
0 1.54895e-08 -1.81984e-06 0 1.54895e-08 -1.81984e-06 0 1.5467e-08 -1.82426e-06 0
1.5467e-08 -1.82426e-06 0 1.54443e-08 -1.82869e-06 0 1.54443e-08 -1.82869e-06 0 1.54216e-08
-1.83312e-06 0 1.54216e-08 -1.83312e-06 0 1.53987e-08 -1.83756e-06 0 1.53987e-08 -1.83756e-06
0 1.53758e-08 -1.84199e-06 0 1.53758e-08 -1.84199e-06 0 1.53527e-08 -1.84644e-06 0
1.53527e-08 -1.84644e-06 0 1.53296e-08 -1.85088e-06 0 1.53296e-08 -1.85088e-06 0 1.53063e-08
-1.85533e-06 0 1.53063e-08 -1.85533e-06 0 1.52829e-08 -1.85979e-06 0 1.52829e-08 -1.85979e-06
0 1.52595e-08 -1.86425e-06 0 1.52595e-08 -1.86425e-06 0 1.52359e-08 -1.86871e-06 0
1.52359e-08 -1.86871e-06 0 1.52122e-08 -1.87317e-06 0 1.52122e-08 -1.87317e-06 0 1.51884e-08
-1.87764e-06 0 1.51884e-08 -1.87764e-06 0 1.51646e-08 -1.88211e-06 0 1.51646e-08 -1.88211e-06
0 1.51406e-08 -1.88659e-06 0 1.51406e-08 -1.88659e-06 0 1.51165e-08 -1.89107e-06 0
1.51165e-08 -1.89107e-06 0 1.50923e-08 -1.89555e-06 0 1.50923e-08 -1.89555e-06 0 1.5068e-08
-1.90004e-06 0 1.5068e-08 -1.90004e-06 0 1.50436e-08 -1.90453e-06 0 1.50436e-08 -1.90453e-06
0 1.5019e-08 -1.90902e-06 0 1.5019e-08 -1.90902e-06 0 1.49944e-08 -1.91351e-06 0
1.49944e-08 -1.91351e-06 0 1.49697e-08 -1.91801e-06 0 1.49697e-08 -1.91801e-06 0 1.49449e-08
-1.92251e-06 0 1.49449e-08 -1.92251e-06 0 1.49199e-08 -1.92702e-06 0 1.49199e-08 -1.92702e-06
0 1.48949e-08 -1.93153e-06 0 1.48949e-08 -1.93153e-06 0 1.48697e-08 -1.93604e-06 0
1.48697e-08 -1.93604e-06 0 1.48444e-08 -1.94055e-06 0 1.48444e-08 -1.94055e-06 0 1.48191e-08
-1.94507e-06 0 1.48191e-08 -1.94507e-06 0 1.47936e-08 -1.94959e-06 0 1.47936e-08 -1.94959e-06
0 1.4768e-08 -1.95411e-06 0 1.4768e-08 -1.95411e-06 0 1.47423e-08 -1.95864e-06 0
1.47423e-08 -1.95864e-06 0 1.47165e-08 -1.96317e-06 0 1.47165e-08 -1.96317e-06 0 1.46906e-08
-1.9677e-06 0 1.46906e-08 -1.9677e-06 0 1.46646e-08 -1.97223e-06 0 1.46646e-08 -1.97223e-06
0 1.46385e-08 -1.97677e-06 0 1.46385e-08 -1.97677e-06 0 1.46122e-08 -1.98131e-06 0
1.46122e-08 -1.98131e-06 0 1.45859e-08 -1.98585e-06 0 1.45859e-08 -1.98585e-06 0 1.45594e-08
-1.99039e-06 0 1.45594e-08 -1.99039e-06 0 1.45328e-08 -1.99494e-06 0 1.45328e-08 -1.99494e-06
0 1.45062e-08 -1.99949e-06 0 1.45062e-08 -1.99949e-06 0 1.44794e-08 -2.00404e-06 0
1.44794e-08 -2.00404e-06 0 1.44525e-08 -2.00859e-06 0 1.44525e-08 -2.00859e-06 0 1.44255e-08
-2.01315e-06 0 1.44255e-08 -2.01315e-06 0 1.43984e-08 -2.0177e-06 0 1.43984e-08 -2.0177e-06
0 1.43712e-08 -2.02226e-06 0 1.43712e-08 -2.02226e-06 0 1.43438e-08 -2.02683e-06 0
1.43438e-08 -2.02683e-06 0 1.43164e-08 -2.03139e-06 0 1.43164e-08 -2.03139e-06 0 1.42888e-08
-2.03596e-06 0 1.42888e-08 -2.03596e-06 0 1.42611e-08 -2.04052e-06 0 1.42611e-08 -2.04052e-06
0 1.42334e-08 -2.04509e-06 0 1.42334e-08 -2.04509e-06 0 1.42055e-08 -2.04967e-06 0
1.42055e-08 -2.04967e-06 0 1.41775e-08 -2.05424e-06 0 1.41775e-08 -2.05424e-06 0 1.41494e-08
-2.05881e-06 0 1.41494e-08 -2.05881e-06 0 1.41211e-08 -2.06339e-06 0 1.41211e-08 -2.06339e-06
0 1.40928e-08 -2.06797e-06 0 1.40928e-08 -2.06797e-06 0 1.40644e-08 -2.07255e-06 0
1.40644e-08 -2.07255e-06 0 1.40358e-08 -2.07713e-06 0 1.40358e-08 -2.07713e-06 0 1.40071e-08
-2.08171e-06 0 1.40071e-08 -2.08171e-06 0 1.39783e-08 -2.0863e-06 0 1.39783e-08 -2.0863e-06
0 1.39495e-08 -2.09088e-06 0 1.39495e-08 -2.09088e-06 0 1.39204e-08 -2.09547e-06 0
1.39204e-08 -2.09547e-06 0 1.38913e-08 -2.10006e-06 0 1.38913e-08 -2.10006e-06 0 1.38621e-08
-2.10465e-06 0 1.38621e-08 -2.10465e-06 0 1.38328e-08 -2.10924e-06 0 1.38328e-08 -2.10924e-06
0 1.38033e-08 -2.11383e-06 0 1.38033e-08 -2.11383e-06 0 1.37737e-08 -2.11842e-06 0
1.37737e-08 -2.11842e-06 0 1.37441e-08 -2.12302e-06 0 1.37441e-08 -2.12302e-06 0 1.37143e-08
-2.12761e-06 0 1.37143e-08 -2.12761e-06 0 1.36844e-08 -2.13221e-06 0 1.36844e-08 -2.13221e-06
0 1.36544e-08 -2.1368e-06 0 1.36544e-08 -2.1368e-06 0 1.36242e-08 -2.1414e-06 0
1.36242e-08 -2.1414e-06 0 1.3594e-08 -2.146e-06 0 1.3594e-08 -2.146e-06 0 1.35636e-08
-2.1506e-06 0 1.35636e-08 -2.1506e-06 0 1.35332e-08 -2.15519e-06 0 1.35332e-08 -2.15519e-06
0 1.35026e-08 -2.15979e-06 0 1.35026e-08 -2.15979e-06 0 1.34719e-08 -2.16439e-06 0
1.34719e-08 -2.16439e-06 0 1.34411e-08 -2.16899e-06 0 1.34411e-08 -2.16899e-06 0 1.34102e-08
-2.17359e-06 0 1.34102e-08 -2.17359e-06 0 1.33792e-08 -2.17819e-06 0 1.33792e-08 -2.17819e-06
0 1.3348e-08 -2.18279e-06 0 1.3348e-08 -2.18279e-06 0 1.33168e-08 -2.18739e-06 0
1.33168e-08 -2.18739e-06 0 1.32854e-08 -2.19199e-06 0 1.32854e-08 -2.19199e-06 0 1.3254e-08
-2.19659e-06 0 1.3254e-08 -2.19659e-06 0 1.32224e-08 -2.20119e-06 0 1.32224e-08 -2.20119e-06
0 1.31907e-08 -2.20579e-06 0 1.31907e-08 -2.20579e-06 0 1.31589e-08 -2.21039e-06 0
1.31589e-08 -2.21039e-06 0 1.31269e-08 -2.21499e-06 0 1.31269e-08 -2.21499e-06 0 1.30949e-08
-2.21959e-06 0 1.30949e-08 -2.21959e-06 0 1.30628e-08 -2.22419e-06 0 1.30628e-08 -2.22419e-06
0 1.30305e-08 -2.22879e-06 0 1.30305e-08 -2.22879e-06 0 1.29981e-08 -2.23339e-06 0
1.29981e-08 -2.23339e-06 0 1.29657e-08 -2.23798e-06 0 1.29657e-08 -2.23798e-06 0 1.29331e-08
-2.24258e-06 0 1.29331e-08 -2.24258e-06 0 1.29004e-08 -2.24718e-06 0 1.29004e-08 -2.24718e-06
0 1.28676e-08 -2.25177e-06 0 1.28676e-08 -2.25177e-06 0 1.28346e-08 -2.25637e-06 0
1.28346e-08 -2.25637e-06 0 1.28016e-08 -2.26096e-06 0 1.28016e-08 -2.26096e-06 0 1.27685e-08
-2.26555e-06 0 1.27685e-08 -2.26555e-06 0 1.27352e-08 -2.27014e-06 0 1.27352e-08 -2.27014e-06
0 1.27018e-08 -2.27473e-06 0 1.27018e-08 -2.27473e-06 0 1.26684e-08 -2.27932e-06 0
1.26684e-08 -2.27932e-06 0 1.26348e-08 -2.28391e-06 0 1.26348e-08 -2.28391e-06 0 1.26011e-08
-2.28849e-06 0 1.26011e-08 -2.28849e-06 0 1.25673e-08 -2.29307e-06 0 1.25673e-08 -2.29307e-06
0 1.25334e-08 -2.29766e-06 0 1.25334e-08 -2.29766e-06 0 1.24994e-08 -2.30224e-06 0
1.24994e-08 -2.30224e-06 0 1.24652e-08 -2.30682e-06 0 1.24652e-08 -2.30682e-06 0 1.2431e-08
-2.31139e-06 0 1.2431e-08 -2.31139e-06 0 1.23967e-08 -2.31597e-06 0 1.23967e-08 -2.31597e-06
0 1.23622e-08 -2.32054e-06 0 1.23622e-08 -2.32054e-06 0 1.23276e-08 -2.32511e-06 0
1.23276e-08 -2.32511e-06 0 1.2293e-08 -2.32968e-06 0 1.2293e-08 -2.32968e-06 0 1.22582e-08
-2.33425e-06 0 1.22582e-08 -2.33425e-06 0 1.22233e-08 -2.33882e-06 0 1.22233e-08 -2.33882e-06
0 1.21883e-08 -2.34338e-06 0 1.21883e-08 -2.34338e-06 0 1.21532e-08 -2.34794e-06 0
1.21532e-08 -2.34794e-06 0 1.2118e-08 -2.3525e-06 0 1.2118e-08 -2.3525e-06 0 1.20827e-08
-2.35705e-06 0 1.20827e-08 -2.35705e-06 0 1.20473e-08 -2.36161e-06 0 1.20473e-08 -2.36161e-06
0 1.20118e-08 -2.36616e-06 0 1.20118e-08 -2.36616e-06 0 1.19761e-08 -2.3707e-06 0
1.19761e-08 -2.3707e-06 0 1.19404e-08 -2.37525e-06 0 1.19404e-08 -2.37525e-06 0 1.19046e-08
-2.37979e-06 0 1.19046e-08 -2.37979e-06 0 1.18686e-08 -2.38433e-06 0 1.18686e-08 -2.38433e-06
0 1.18326e-08 -2.38886e-06 0 1.18326e-08 -2.38886e-06 0 1.17964e-08 -2.3934e-06 0
1.17964e-08 -2.3934e-06 0 1.17602e-08 -2.39793e-06 0 1.17602e-08 -2.39793e-06 0 1.17238e-08
-2.40245e-06 0 1.17238e-08 -2.40245e-06 0 1.16874e-08 -2.40697e-06 0 1.16874e-08 -2.40697e-06
0 1.16508e-08 -2.41149e-06 0 1.16508e-08 -2.41149e-06 0 1.16142e-08 -2.41601e-06 0
1.16142e-08 -2.41601e-06 0 1.15774e-08 -2.42052e-06 0 1.15774e-08 -2.42052e-06 0 1.15406e-08
-2.42503e-06 0 1.15406e-08 -2.42503e-06 0 1.15036e-08 -2.42953e-06 0 1.15036e-08 -2.42953e-06
0 1.14665e-08 -2.43403e-06 0 1.14665e-08 -2.43403e-06 0 1.14297e-08 -2.43852e-06 0
1.14297e-08 -2.43852e-06 0 1.13941e-08 -2.44288e-06 0 1.13941e-08 -2.44288e-06 0 1.13595e-08
-2.44703e-06 0 1.13595e-08 -2.44703e-06 0 1.13254e-08 -2.45106e-06 0 1.13254e-08 -2.45106e-06
0 1.12913e-08 -2.45509e-06 0 1.12913e-08 -2.45509e-06 0 1.1257e-08 -2.45917e-06 0
1.1257e-08 -2.45917e-06 0 1.12223e-08 -2.46329e-06 0 1.12223e-08 -2.46329e-06 0 1.11872e-08
-2.46744e-06 0 1.11872e-08 -2.46744e-06 0 1.11518e-08 -2.47162e-06 0 1.11518e-08 -2.47162e-06
0 1.11159e-08 -2.47583e-06 0 1.11159e-08 -2.47583e-06 0 1.10797e-08 -2.48007e-06 0
1.10797e-08 -2.48007e-06 0 1.1043e-08 -2.48434e-06 0 1.1043e-08 -2.48434e-06 0 1.1006e-08
-2.48865e-06 0 1.1006e-08 -2.48865e-06 0 1.09686e-08 -2.49299e-06 0 1.09686e-08 -2.49299e-06
0 1.09307e-08 -2.49736e-06 0 1.09307e-08 -2.49736e-06 0 1.08924e-08 -2.50176e-06 0
1.08924e-08 -2.50176e-06 0 1.08538e-08 -2.5062e-06 0 1.08538e-08 -2.5062e-06 0 1.08147e-08
-2.51066e-06 0 1.08147e-08 -2.51066e-06 0 1.07751e-08 -2.51516e-06 0 1.07751e-08 -2.51516e-06
0 1.07352e-08 -2.51969e-06 0 1.07352e-08 -2.51969e-06 0 1.06948e-08 -2.52426e-06 0
1.06948e-08 -2.52426e-06 0 1.0654e-08 -2.52885e-06 0 1.0654e-08 -2.52885e-06 0 1.06127e-08
-2.53348e-06 0 1.06127e-08 -2.53348e-06 0 1.0571e-08 -2.53814e-06 0 1.0571e-08 -2.53814e-06
0 1.05289e-08 -2.54283e-06 0 1.05289e-08 -2.54283e-06 0 1.04863e-08 -2.54756e-06 0
1.04863e-08 -2.54756e-06 0 1.04432e-08 -2.55231e-06 0 1.04432e-08 -2.55231e-06 0 1.03997e-08
-2.5571e-06 0 1.03997e-08 -2.5571e-06 0 1.03558e-08 -2.56192e-06 0 1.03558e-08 -2.56192e-06
0 1.03113e-08 -2.56677e-06 0 1.03113e-08 -2.56677e-06 0 1.02664e-08 -2.57165e-06 0
1.02664e-08 -2.57165e-06 0 1.02211e-08 -2.57657e-06 0 1.02211e-08 -2.57657e-06 0 1.01752e-08
-2.58151e-06 0 1.01752e-08 -2.58151e-06 0 1.01289e-08 -2.58649e-06 0 1.01289e-08 -2.58649e-06
0 1.00821e-08 -2.59149e-06 0 1.00821e-08 -2.59149e-06 0 1.00348e-08 -2.59653e-06 0
1.00348e-08 -2.59653e-06 0 9.98707e-09 -2.6016e-06 0 9.98707e-09 -2.6016e-06 0 9.93881e-09
-2.6067e-06 0 9.93881e-09 -2.6067e-06 0 9.89005e-09 -2.61183e-06 0 9.89005e-09 -2.61183e-06
0 9.8408e-09 -2.61699e-06 0 9.8408e-09 -2.61699e-06 0 9.79105e-09 -2.62218e-06 0
9.79105e-09 -2.62218e-06 0 9.74079e-09 -2.6274e-06 0 9.74079e-09 -2.6274e-06 0 9.69003e-09
-2.63264e-06 0 9.69003e-09 -2.63264e-06 0 9.63875e-09 -2.63792e-06 0 9.63875e-09 -2.63792e-06
0 9.58697e-09 -2.64323e-06 0 9.58697e-09 -2.64323e-06 0 9.53467e-09 -2.64856e-06 0
9.53467e-09 -2.64856e-06 0 9.48185e-09 -2.65393e-06 0 9.48185e-09 -2.65393e-06 0 9.42852e-09
-2.65932e-06 0 9.42852e-09 -2.65932e-06 0 9.37466e-09 -2.66474e-06 0 9.37466e-09 -2.66474e-06
0 9.32027e-09 -2.67018e-06 0 9.32027e-09 -2.67018e-06 0 9.26536e-09 -2.67566e-06 0
9.26536e-09 -2.67566e-06 0 9.20992e-09 -2.68116e-06 0 9.20992e-09 -2.68116e-06 0 9.15395e-09
-2.68668e-06 0 9.15395e-09 -2.68668e-06 0 9.09744e-09 -2.69224e-06 0 9.09744e-09 -2.69224e-06
0 9.0404e-09 -2.69781e-06 0 9.0404e-09 -2.69781e-06 0 8.98283e-09 -2.70342e-06 0
8.98283e-09 -2.70342e-06 0 8.92471e-09 -2.70904e-06 0 8.92471e-09 -2.70904e-06 0 8.86606e-09
-2.71469e-06 0 8.86606e-09 -2.71469e-06 0 8.80686e-09 -2.72037e-06 0 8.80686e-09 -2.72037e-06
0 8.74712e-09 -2.72607e-06 0 8.74712e-09 -2.72607e-06 0 8.68684e-09 -2.73179e-06 0
8.68684e-09 -2.73179e-06 0 8.62601e-09 -2.73753e-06 0 8.62601e-09 -2.73753e-06 0 8.56464e-09
-2.74329e-06 0 8.56464e-09 -2.74329e-06 0 8.50272e-09 -2.74908e-06 0 8.50272e-09 -2.74908e-06
0 8.44026e-09 -2.75488e-06 0 8.44026e-09 -2.75488e-06 0 8.37725e-09 -2.7607e-06 0
8.37725e-09 -2.7607e-06 0 8.3137e-09 -2.76655e-06 0 8.3137e-09 -2.76655e-06 0 8.2496e-09
-2.77241e-06 0 8.2496e-09 -2.77241e-06 0 8.18495e-09 -2.77829e-06 0 8.18495e-09 -2.77829e-06
0 8.11976e-09 -2.78418e-06 0 8.11976e-09 -2.78418e-06 0 8.05403e-09 -2.79009e-06 0
8.05403e-09 -2.79009e-06 0 7.98775e-09 -2.79602e-06 0 7.98775e-09 -2.79602e-06 0 7.92093e-09
-2.80196e-06 0 7.92093e-09 -2.80196e-06 0 7.85358e-09 -2.80792e-06 0 7.85358e-09 -2.80792e-06
0 7.78568e-09 -2.81389e-06 0 7.78568e-09 -2.81389e-06 0 7.71725e-09 -2.81987e-06 0
7.71725e-09 -2.81987e-06 0 7.64828e-09 -2.82586e-06 0 7.64828e-09 -2.82586e-06 0 7.57879e-09
-2.83187e-06 0 7.57879e-09 -2.83187e-06 0 7.50876e-09 -2.83788e-06 0 7.50876e-09 -2.83788e-06
0 7.43821e-09 -2.8439e-06 0 7.43821e-09 -2.8439e-06 0 7.36714e-09 -2.84993e-06 0
7.36714e-09 -2.84993e-06 0 7.29556e-09 -2.85596e-06 0 7.29556e-09 -2.85596e-06 0 7.22345e-09
-2.86201e-06 0 7.22345e-09 -2.86201e-06 0 7.15084e-09 -2.86805e-06 0 7.15084e-09 -2.86805e-06
0 7.07772e-09 -2.8741e-06 0 7.07772e-09 -2.8741e-06 0 7.00411e-09 -2.88015e-06 0
7.00411e-09 -2.88015e-06 0 6.92999e-09 -2.88621e-06 0 6.92999e-09 -2.88621e-06 0 6.85539e-09
-2.89226e-06 0 6.85539e-09 -2.89226e-06 0 6.78031e-09 -2.89832e-06 0 6.78031e-09 -2.89832e-06
0 6.70475e-09 -2.90437e-06 0 6.70475e-09 -2.90437e-06 0 6.62872e-09 -2.91042e-06 0
6.62872e-09 -2.91042e-06 0 6.55223e-09 -2.91646e-06 0 6.55223e-09 -2.91646e-06 0 6.47528e-09
-2.9225e-06 0 6.47528e-09 -2.9225e-06 0 6.39788e-09 -2.92853e-06 0 6.39788e-09 -2.92853e-06
0 6.32005e-09 -2.93456e-06 0 6.32005e-09 -2.93456e-06 0 6.24178e-09 -2.94057e-06 0
6.24178e-09 -2.94057e-06 0 6.16309e-09 -2.94658e-06 0 6.16309e-09 -2.94658e-06 0 6.08399e-09
-2.95257e-06 0 6.08399e-09 -2.95257e-06 0 6.00449e-09 -2.95855e-06 0 6.00449e-09 -2.95855e-06
0 5.9246e-09 -2.96451e-06 0 5.9246e-09 -2.96451e-06 0 5.84432e-09 -2.97046e-06 0
5.84432e-09 -2.97046e-06 0 5.76367e-09 -2.97639e-06 0 5.76367e-09 -2.97639e-06 0 5.68267e-09
-2.9823e-06 0 5.68267e-09 -2.9823e-06 0 5.60132e-09 -2.98819e-06 0 5.60132e-09 -2.98819e-06
0 5.51963e-09 -2.99406e-06 0 5.51963e-09 -2.99406e-06 0 5.43762e-09 -2.9999e-06 0
5.43762e-09 -2.9999e-06 0 5.35531e-09 -3.00572e-06 0 5.35531e-09 -3.00572e-06 0 5.2727e-09
-3.01151e-06 0 5.2727e-09 -3.01151e-06 0 5.18981e-09 -3.01728e-06 0 5.18981e-09 -3.01728e-06
0 5.10665e-09 -3.02301e-06 0 5.10665e-09 -3.02301e-06 0 5.02325e-09 -3.02871e-06 0
5.02325e-09 -3.02871e-06 0 4.93961e-09 -3.03438e-06 0 4.93961e-09 -3.03438e-06 0 4.85575e-09
-3.04002e-06 0 4.85575e-09 -3.04002e-06 0 4.77169e-09 -3.04561e-06 0 4.77169e-09 -3.04561e-06
0 4.68744e-09 -3.05117e-06 0 4.68744e-09 -3.05117e-06 0 4.60303e-09 -3.05669e-06 0
4.60303e-09 -3.05669e-06 0 4.51847e-09 -3.06217e-06 0 4.51847e-09 -3.06217e-06 0 4.43377e-09
-3.06761e-06 0 4.43377e-09 -3.06761e-06 0 4.34896e-09 -3.073e-06 0 4.34896e-09 -3.073e-06
0 4.26406e-09 -3.07834e-06 0 4.26406e-09 -3.07834e-06 0 4.17909e-09 -3.08363e-06 0
4.17909e-09 -3.08363e-06 0 4.09406e-09 -3.08888e-06 0 4.09406e-09 -3.08888e-06 0 4.00899e-09
-3.09407e-06 0 4.00899e-09 -3.09407e-06 0 3.92392e-09 -3.0992e-06 0 3.92392e-09 -3.0992e-06
0 3.83885e-09 -3.10429e-06 0 3.83885e-09 -3.10429e-06 0 3.75382e-09 -3.10931e-06 0
3.75382e-09 -3.10931e-06 0 3.66883e-09 -3.11428e-06 0 3.66883e-09 -3.11428e-06 0 3.58393e-09
-3.11918e-06 0 3.58393e-09 -3.11918e-06 0 3.49912e-09 -3.12402e-06 0 3.49912e-09 -3.12402e-06
0 3.41443e-09 -3.1288e-06 0 3.41443e-09 -3.1288e-06 0 3.32988e-09 -3.1335e-06 0
3.32988e-09 -3.1335e-06 0 3.24551e-09 -3.13815e-06 0 3.24551e-09 -3.13815e-06 0 3.16133e-09
-3.14272e-06 0 3.16133e-09 -3.14272e-06 0 3.07736e-09 -3.14722e-06 0 3.07736e-09 -3.14722e-06
0 2.99364e-09 -3.15164e-06 0 2.99364e-09 -3.15164e-06 0 2.91018e-09 -3.15599e-06 0
2.91018e-09 -3.15599e-06 0 2.82701e-09 -3.16027e-06 0 2.82701e-09 -3.16027e-06 0 2.74417e-09
-3.16446e-06 0 2.74417e-09 -3.16446e-06 0 2.66166e-09 -3.16857e-06 0 2.66166e-09 -3.16857e-06
0 2.57953e-09 -3.1726e-06 0 2.57953e-09 -3.1726e-06 0 2.49779e-09 -3.17655e-06 0
2.49779e-09 -3.17655e-06 0 2.41647e-09 -3.18041e-06 0 2.41647e-09 -3.18041e-06 0 2.3356e-09
-3.18419e-06 0 2.3356e-09 -3.18419e-06 0 2.25521e-09 -3.18787e-06 0 2.25521e-09 -3.18787e-06
0 2.17531e-09 -3.19147e-06 0 2.17531e-09 -3.19147e-06 0 2.09594e-09 -3.19497e-06 0
2.09594e-09 -3.19497e-06 0 2.01713e-09 -3.19838e-06 0 2.01713e-09 -3.19838e-06 0 1.93889e-09
-3.2017e-06 0 1.93889e-09 -3.2017e-06 0 1.86126e-09 -3.20492e-06 0 1.86126e-09 -3.20492e-06
0 1.78426e-09 -3.20804e-06 0 1.78426e-09 -3.20804e-06 0 1.70793e-09 -3.21106e-06 0
1.70793e-09 -3.21106e-06 0 1.63227e-09 -3.21398e-06 0 1.63227e-09 -3.21398e-06 0 1.55733e-09
-3.2168e-06 0 1.55733e-09 -3.2168e-06 0 1.48313e-09 -3.21951e-06 0 1.48313e-09 -3.21951e-06
0 1.40968e-09 -3.22212e-06 0 1.40968e-09 -3.22212e-06 0 1.33703e-09 -3.22463e-06 0
1.33703e-09 -3.22463e-06 0 1.26518e-09 -3.22703e-06 0 1.26518e-09 -3.22703e-06 0 1.19418e-09
-3.22932e-06 0 1.19418e-09 -3.22932e-06 0 1.12404e-09 -3.2315e-06 0 1.12404e-09 -3.2315e-06
0 1.05478e-09 -3.23357e-06 0 1.05478e-09 -3.23357e-06 0 9.86434e-10 -3.23554e-06 0
9.86434e-10 -3.23554e-06 0 9.1902e-10 -3.23739e-06 0 9.1902e-10 -3.23739e-06 0 8.52563e-10
-3.23912e-06 0 8.52563e-10 -3.23912e-06 0 7.87084e-10 -3.24075e-06 0 7.87084e-10 -3.24075e-06
0 7.22605e-10 -3.24226e-06 0 7.22605e-10 -3.24226e-06 0 6.59147e-10 -3.24366e-06 0
6.59147e-10 -3.24366e-06 0 5.96732e-10 -3.24494e-06 0 5.96732e-10 -3.24494e-06 0 5.35379e-10
-3.24611e-06 0 5.35379e-10 -3.24611e-06 0 4.75108e-10 -3.24716e-06 0 4.75108e-10 -3.24716e-06
0 4.15939e-10 -3.2481e-06 0 4.15939e-10 -3.2481e-06 0 3.57888e-10 -3.24892e-06 0
3.57888e-10 -3.24892e-06 0 3.00975e-10 -3.24962e-06 0 3.00975e-10 -3.24962e-06 0 2.45215e-10
-3.25021e-06 0 2.45215e-10 -3.25021e-06 0 1.90626e-10 -3.25068e-06 0 1.90626e-10 -3.25068e-06
0 1.37222e-10 -3.25103e-06 0 1.37222e-10 -3.25103e-06 0 8.50182e-11 -3.25127e-06 0
8.50182e-11 -3.25127e-06 0 3.40293e-11 -3.25139e-06 0 3.40293e-11 -3.25139e-06 0 -1.57351e-11
-3.2514e-06 0 -1.57351e-11 -3.2514e-06 0 -6.42472e-11 -3.25129e-06 0 -6.42472e-11 -3.25129e-06
0 -1.11561e-10 -3.25107e-06 0 -1.11561e-10 -3.25107e-06 0 -1.57389e-10 -3.25073e-06 0
-1.57389e-10 -3.25073e-06 0 -2.02885e-10 -3.25027e-06 0 -2.02885e-10 -3.25027e-06 0 -2.50098e-10
-3.24966e-06 0 -2.50098e-10 -3.24966e-06 0 -2.98361e-10 -3.24886e-06 0 -2.98361e-10 -3.24886e-06
0 -3.45954e-10 -3.24786e-06 0 -3.45954e-10 -3.24786e-06 0 -3.91978e-10 -3.24672e-06 0
-3.91978e-10 -3.24672e-06 0 -4.35779e-10 -3.24544e-06 0 -4.35779e-10 -3.24544e-06 0 -4.77302e-10
-3.24404e-06 0 -4.77302e-10 -3.24404e-06 0 -5.16588e-10 -3.24251e-06 0 -5.16588e-10 -3.24251e-06
0 -5.5369e-10 -3.24087e-06 0 -5.5369e-10 -3.24087e-06 0 -5.8867e-10 -3.23911e-06 0
-5.8867e-10 -3.23911e-06 0 -6.21597e-10 -3.23726e-06 0 -6.21597e-10 -3.23726e-06 0 -6.52542e-10
-3.2353e-06 0 -6.52542e-10 -3.2353e-06 0 -6.81569e-10 -3.23326e-06 0 -6.81569e-10 -3.23326e-06
0 -7.08743e-10 -3.23113e-06 0 -7.08743e-10 -3.23113e-06 0 -7.34125e-10 -3.22892e-06 0
-7.34125e-10 -3.22892e-06 0 -7.57775e-10 -3.22664e-06 0 -7.57775e-10 -3.22664e-06 0 -7.79753e-10
-3.22429e-06 0 -7.79753e-10 -3.22429e-06 0 -8.00113e-10 -3.22187e-06 0 -8.00113e-10 -3.22187e-06
0 -8.18913e-10 -3.21939e-06 0 -8.18913e-10 -3.21939e-06 0 -8.36203e-10 -3.21686e-06 0
-8.36203e-10 -3.21686e-06 0 -8.52037e-10 -3.21428e-06 0 -8.52037e-10 -3.21428e-06 0 -8.66464e-10
-3.21166e-06 0 -8.66464e-10 -3.21166e-06 0 -8.79532e-10 -3.20899e-06 0 -8.79532e-10 -3.20899e-06
0 -8.91286e-10 -3.20628e-06 0 -8.91286e-10 -3.20628e-06 0 -9.01774e-10 -3.20355e-06 0
-9.01774e-10 -3.20355e-06 0 -9.11037e-10 -3.20078e-06 0 -9.11037e-10 -3.20078e-06 0 -9.19117e-10
-3.19798e-06 0 -9.19117e-10 -3.19798e-06 0 -9.26055e-10 -3.19516e-06 0 -9.26055e-10 -3.19516e-06
0 -9.3189e-10 -3.19233e-06 0 -9.3189e-10 -3.19233e-06 0 -9.36658e-10 -3.18948e-06 0
-9.36658e-10 -3.18948e-06 0 -9.40397e-10 -3.18661e-06 0 -9.40397e-10 -3.18661e-06 0 -9.43141e-10
-3.18373e-06 0 -9.43141e-10 -3.18373e-06 0 -9.44922e-10 -3.18085e-06 0 -9.44922e-10 -3.18085e-06
0 -9.45774e-10 -3.17797e-06 0 -9.45774e-10 -3.17797e-06 0 -9.45728e-10 -3.17508e-06 0
-9.45728e-10 -3.17508e-06 0 -9.44813e-10 -3.17219e-06 0 -9.44813e-10 -3.17219e-06 0 -9.43057e-10
-3.16931e-06 0 -9.43057e-10 -3.16931e-06 0 -9.40489e-10 -3.16644e-06 0 -9.40489e-10 -3.16644e-06
0 -9.37135e-10 -3.16357e-06 0 -9.37135e-10 -3.16357e-06 0 -9.3302e-10 -3.16072e-06 0
-9.3302e-10 -3.16072e-06 0 -9.28169e-10 -3.15788e-06 0 -9.28169e-10 -3.15788e-06 0 -9.22605e-10
-3.15506e-06 0 -9.22605e-10 -3.15506e-06 0 -9.16352e-10 -3.15225e-06 0 -9.16352e-10 -3.15225e-06
0 -9.09431e-10 -3.14946e-06 0 -9.09431e-10 -3.14946e-06 0 -9.01862e-10 -3.1467e-06 0
-9.01862e-10 -3.1467e-06 0 -8.93667e-10 -3.14396e-06 0 -8.93667e-10 -3.14396e-06 0 -8.84865e-10
-3.14125e-06 0 -8.84865e-10 -3.14125e-06 0 -8.75475e-10 -3.13856e-06 0 -8.75475e-10 -3.13856e-06
0 -8.65514e-10 -3.1359e-06 0 -8.65514e-10 -3.1359e-06 0 -8.55001e-10 -3.13328e-06 0
-8.55001e-10 -3.13328e-06 0 -8.43952e-10 -3.13069e-06 0 -8.43952e-10 -3.13069e-06 0 -8.32384e-10
-3.12813e-06 0 -8.32384e-10 -3.12813e-06 0 -8.20312e-10 -3.12561e-06 0 -8.20312e-10 -3.12561e-06
0 -8.07752e-10 -3.12312e-06 0 -8.07752e-10 -3.12312e-06 0 -7.94719e-10 -3.12068e-06 0
-7.94719e-10 -3.12068e-06 0 -7.81227e-10 -3.11827e-06 0 -7.81227e-10 -3.11827e-06 0 -7.67291e-10
-3.11591e-06 0 -7.67291e-10 -3.11591e-06 0 -7.52923e-10 -3.11359e-06 0 -7.52923e-10 -3.11359e-06
0 -7.38138e-10 -3.11131e-06 0 -7.38138e-10 -3.11131e-06 0 -7.22948e-10 -3.10908e-06 0
-7.22948e-10 -3.10908e-06 0 -7.07366e-10 -3.1069e-06 0 -7.07366e-10 -3.1069e-06 0 -6.91404e-10
-3.10476e-06 0 -6.91404e-10 -3.10476e-06 0 -6.75076e-10 -3.10267e-06 0 -6.75076e-10 -3.10267e-06
0 -6.58391e-10 -3.10064e-06 0 -6.58391e-10 -3.10064e-06 0 -6.41364e-10 -3.09865e-06 0
-6.41364e-10 -3.09865e-06 0 -6.24004e-10 -3.09672e-06 0 -6.24004e-10 -3.09672e-06 0 -6.06323e-10
-3.09484e-06 0 -6.06323e-10 -3.09484e-06 0 -5.88333e-10 -3.09302e-06 0 -5.88333e-10 -3.09302e-06
0 -5.70045e-10 -3.09125e-06 0 -5.70045e-10 -3.09125e-06 0 -5.51469e-10 -3.08953e-06 0
-5.51469e-10 -3.08953e-06 0 -5.32617e-10 -3.08788e-06 0 -5.32617e-10 -3.08788e-06 0 -5.13499e-10
-3.08628e-06 0 -5.13499e-10 -3.08628e-06 0 -4.94125e-10 -3.08474e-06 0 -4.94125e-10 -3.08474e-06
0 -4.74507e-10 -3.08325e-06 0 -4.74507e-10 -3.08325e-06 0 -4.54655e-10 -3.08183e-06 0
-4.54655e-10 -3.08183e-06 0 -4.34579e-10 -3.08047e-06 0 -4.34579e-10 -3.08047e-06 0 -4.1429e-10
-3.07917e-06 0 -4.1429e-10 -3.07917e-06 0 -3.93799e-10 -3.07794e-06 0 -3.93799e-10 -3.07794e-06
0 -3.73114e-10 -3.07676e-06 0 -3.73114e-10 -3.07676e-06 0 -3.52247e-10 -3.07565e-06 0
-3.52247e-10 -3.07565e-06 0 -3.31208e-10 -3.0746e-06 0 -3.31208e-10 -3.0746e-06 0 -3.10007e-10
-3.07362e-06 0 -3.10007e-10 -3.07362e-06 0 -2.88655e-10 -3.0727e-06 0 -2.88655e-10 -3.0727e-06
0 -2.67161e-10 -3.07185e-06 0 -2.67161e-10 -3.07185e-06 0 -2.45535e-10 -3.07106e-06 0
-2.45535e-10 -3.07106e-06 0 -2.23789e-10 -3.07034e-06 0 -2.23789e-10 -3.07034e-06 0 -2.01931e-10
-3.06969e-06 0 -2.01931e-10 -3.06969e-06 0 -1.79973e-10 -3.06907e-06 0 -1.79973e-10 -3.06907e-06
0 -1.57924e-10 -3.06863e-06 0 -1.57924e-10 -3.06863e-06 0 -1.35792e-10 -3.06792e-06 0
-1.35792e-10 -3.06792e-06 0 -1.13596e-10 -3.06834e-06 0 -1.13596e-10 -3.06834e-06 0 -9.13228e-11
-3.0652e-06 0 -9.13228e-11 -3.0652e-06 0 -6.90255e-11 -3.07342e-06 0 -6.90255e-11 -3.07342e-06
0 -4.67477e-11 -3.0395e-06 0 -4.67477e-11 -3.0395e-06 0 -2.396e-11 -3.11612e-06 0
-2.396e-11 -3.11612e-06 0 -6.22218e-12 -3.03399e-06 0 -6.22218e-12 -3.03399e-06 0 -1.28968e-13
-2.82898e-06 0 -1.28968e-13 -2.82898e-06 0 
U 3 1092 float
69.4 0 0 69.4 0 0 69.4 0 0 69.4 0
0 69.4 0 0 69.4 0 0 69.4001 0 0
69.4001 0 0 69.4001 0 0 69.4001 0 0 69.4002
0 0 69.4002 0 0 69.4003 0 0 69.4003 0
0 69.4003 0 0 69.4003 0 0 69.4004 0 0
69.4004 0 0 69.4005 0 0 69.4005 0 0 69.4007
0 0 69.4007 0 0 69.4008 0 0 69.4008 0
0 69.4009 0 0 69.4009 0 0 69.401 0 0
69.401 0 0 69.4012 0 0 69.4012 0 0 69.4013
0 0 69.4013 0 0 69.4014 0 0 69.4014 0
0 69.4016 0 0 69.4016 0 0 69.4017 0 0
69.4017 0 0 69.4019 0 0 69.4019 0 0 69.402
0 0 69.402 0 0 69.4022 0 0 69.4022 0
0 69.4023 0 0 69.4023 0 0 69.4025 0 0
69.4025 0 0 69.4026 0 0 69.4026 0 0 69.4028
0 0 69.4028 0 0 69.403 0 0 69.403 0
0 69.4031 0 0 69.4031 0 0 69.4033 0 0
69.4033 0 0 69.4034 0 0 69.4034 0 0 69.4036
0 0 69.4036 0 0 69.4037 0 0 69.4037 0
0 69.4039 0 0 69.4039 0 0 69.404 0 0
69.404 0 0 69.4042 0 0 69.4042 0 0 69.4043
0 0 69.4043 0 0 69.4045 0 0 69.4045 0
0 69.4046 0 0 69.4046 0 0 69.4048 0 0
69.4048 0 0 69.4049 0 0 69.4049 0 0 69.4051
0 0 69.4051 0 0 69.4052 0 0 69.4052 0
0 69.4053 0 0 69.4053 0 0 69.4055 0 0
69.4055 0 0 69.4056 0 0 69.4056 0 0 69.4057
0 0 69.4057 0 0 69.4059 0 0 69.4059 0
0 69.406 0 0 69.406 0 0 69.4061 0 0
69.4061 0 0 69.4062 0 0 69.4062 0 0 69.4064
0 0 69.4064 0 0 69.4065 0 0 69.4065 0
0 69.4066 0 0 69.4066 0 0 69.4067 0 0
69.4067 0 0 69.4068 0 0 69.4068 0 0 69.4069
0 0 69.4069 0 0 69.407 0 0 69.407 0
0 69.4071 0 0 69.4071 0 0 69.4072 0 0
69.4072 0 0 69.4073 0 0 69.4073 0 0 69.4074
0 0 69.4074 0 0 69.4075 0 0 69.4075 0
0 69.4076 0 0 69.4076 0 0 69.4077 0 0
69.4077 0 0 69.4078 0 0 69.4078 0 0 69.4079
0 0 69.4079 0 0 69.408 0 0 69.408 0
0 69.4081 0 0 69.4081 0 0 69.4082 0 0
69.4082 0 0 69.4082 0 0 69.4082 0 0 69.4083
0 0 69.4083 0 0 69.4084 0 0 69.4084 0
0 69.4085 0 0 69.4085 0 0 69.4086 0 0
69.4086 0 0 69.4086 0 0 69.4086 0 0 69.4087
0 0 69.4087 0 0 69.4088 0 0 69.4088 0
0 69.4088 0 0 69.4088 0 0 69.4089 0 0
69.4089 0 0 69.409 0 0 69.409 0 0 69.4091
0 0 69.4091 0 0 69.4091 0 0 69.4091 0
0 69.4092 0 0 69.4092 0 0 69.4093 0 0
69.4093 0 0 69.4093 0 0 69.4093 0 0 69.4094
0 0 69.4094 0 0 69.4095 0 0 69.4095 0
0 69.4096 0 0 69.4096 0 0 69.4096 0 0
69.4096 0 0 69.4097 0 0 69.4097 0 0 69.4098
0 0 69.4098 0 0 69.4099 0 0 69.4099 0
0 69.4099 0 0 69.4099 0 0 69.41 0 0
69.41 0 0 69.4101 0 0 69.4101 0 0 69.4101
0 0 69.4101 0 0 69.4102 0 0 69.4102 0
0 69.4103 0 0 69.4103 0 0 69.4103 0 0
69.4103 0 0 69.4104 0 0 69.4104 0 0 69.4104
0 0 69.4104 0 0 69.4105 0 0 69.4105 0
0 69.4106 0 0 69.4106 0 0 69.4106 0 0
69.4106 0 0 69.4107 0 0 69.4107 0 0 69.4107
0 0 69.4107 0 0 69.4108 0 0 69.4108 0
0 69.4109 0 0 69.4109 0 0 69.4109 0 0
69.4109 0 0 69.411 0 0 69.411 0 0 69.411
0 0 69.411 0 0 69.4111 0 0 69.4111 0
0 69.4112 0 0 69.4112 0 0 69.4112 0 0
69.4112 0 0 69.4113 0 0 69.4113 0 0 69.4114
0 0 69.4114 0 0 69.4114 0 0 69.4114 0
0 69.4115 0 0 69.4115 0 0 69.4116 0 0
69.4116 0 0 69.4116 0 0 69.4116 0 0 69.4117
0 0 69.4117 0 0 69.4117 0 0 69.4117 0
0 69.4118 0 0 69.4118 0 0 69.4119 0 0
69.4119 0 0 69.4119 0 0 69.4119 0 0 69.412
0 0 69.412 0 0 69.4121 0 0 69.4121 0
0 69.4121 0 0 69.4121 0 0 69.4122 0 0
69.4122 0 0 69.4123 0 0 69.4123 0 0 69.4123
0 0 69.4123 0 0 69.4124 0 0 69.4124 0
0 69.4125 0 0 69.4125 0 0 69.4126 0 0
69.4126 0 0 69.4126 0 0 69.4126 0 0 69.4127
0 0 69.4127 0 0 69.4128 0 0 69.4128 0
0 69.4128 0 0 69.4128 0 0 69.4129 0 0
69.4129 0 0 69.413 0 0 69.413 0 0 69.413
0 0 69.413 0 0 69.4131 0 0 69.4131 0
0 69.4132 0 0 69.4132 0 0 69.4133 0 0
69.4133 0 0 69.4133 0 0 69.4133 0 0 69.4134
0 0 69.4134 0 0 69.4135 0 0 69.4135 0
0 69.4136 0 0 69.4136 0 0 69.4136 0 0
69.4136 0 0 69.4137 0 0 69.4137 0 0 69.4138
0 0 69.4138 0 0 69.4138 0 0 69.4138 0
0 69.4139 0 0 69.4139 0 0 69.414 0 0
69.414 0 0 69.4141 0 0 69.4141 0 0 69.4142
0 0 69.4142 0 0 69.4142 0 0 69.4142 0
0 69.4143 0 0 69.4143 0 0 69.4144 0 0
69.4144 0 0 69.4145 0 0 69.4145 0 0 69.4145
0 0 69.4145 0 0 69.4146 0 0 69.4146 0
0 69.4147 0 0 69.4147 0 0 69.4148 0 0
69.4148 0 0 69.4149 0 0 69.4149 0 0 69.4149
0 0 69.4149 0 0 69.415 0 0 69.415 0
0 69.4151 0 0 69.4151 0 0 69.4152 0 0
69.4152 0 0 69.4153 0 0 69.4153 0 0 69.4153
0 0 69.4153 0 0 69.4154 0 0 69.4154 0
0 69.4155 0 0 69.4155 0 0 69.4156 0 0
69.4156 0 0 69.4157 0 0 69.4157 0 0 69.4158
0 0 69.4158 0 0 69.4158 0 0 69.4158 0
0 69.4159 0 0 69.4159 0 0 69.416 0 0
69.416 0 0 69.4161 0 0 69.4161 0 0 69.4162
0 0 69.4162 0 0 69.4163 0 0 69.4163 0
0 69.4164 0 0 69.4164 0 0 69.4164 0 0
69.4164 0 0 69.4165 0 0 69.4165 0 0 69.4166
0 0 69.4166 0 0 69.4167 0 0 69.4167 0
0 69.4168 0 0 69.4168 0 0 69.4169 0 0
69.4169 0 0 69.417 0 0 69.417 0 0 69.4171
0 0 69.4171 0 0 69.4172 0 0 69.4172 0
0 69.4172 0 0 69.4172 0 0 69.4173 0 0
69.4173 0 0 69.4174 0 0 69.4174 0 0 69.4175
0 0 69.4175 0 0 69.4176 0 0 69.4176 0
0 69.4177 0 0 69.4177 0 0 69.4178 0 0
69.4178 0 0 69.4179 0 0 69.4179 0 0 69.418
0 0 69.418 0 0 69.4181 0 0 69.4181 0
0 69.4182 0 0 69.4182 0 0 69.4183 0 0
69.4183 0 0 69.4184 0 0 69.4184 0 0 69.4185
0 0 69.4185 0 0 69.4186 0 0 69.4186 0
0 69.4187 0 0 69.4187 0 0 69.4188 0 0
69.4188 0 0 69.4189 0 0 69.4189 0 0 69.419
0 0 69.419 0 0 69.4191 0 0 69.4191 0
0 69.4192 0 0 69.4192 0 0 69.4193 0 0
69.4193 0 0 69.4193 0 0 69.4193 0 0 69.4194
0 0 69.4194 0 0 69.4195 0 0 69.4195 0
0 69.4197 0 0 69.4197 0 0 69.4198 0 0
69.4198 0 0 69.4199 0 0 69.4199 0 0 69.42
0 0 69.42 0 0 69.4201 0 0 69.4201 0
0 69.4202 0 0 69.4202 0 0 69.4203 0 0
69.4203 0 0 69.4204 0 0 69.4204 0 0 69.4205
0 0 69.4205 0 0 69.4206 0 0 69.4206 0
0 69.4207 0 0 69.4207 0 0 69.4208 0 0
69.4208 0 0 69.4209 0 0 69.4209 0 0 69.421
0 0 69.421 0 0 69.4211 0 0 69.4211 0
0 69.4212 0 0 69.4212 0 0 69.4213 0 0
69.4213 0 0 69.4214 0 0 69.4214 0 0 69.4216
0 0 69.4216 0 0 69.4217 0 0 69.4217 0
0 69.4218 0 0 69.4218 0 0 69.4219 0 0
69.4219 0 0 69.422 0 0 69.422 0 0 69.4221
0 0 69.4221 0 0 69.4222 0 0 69.4222 0
0 69.4223 0 0 69.4223 0 0 69.4225 0 0
69.4225 0 0 69.4226 0 0 69.4226 0 0 69.4227
0 0 69.4227 0 0 69.4228 0 0 69.4228 0
0 69.4229 0 0 69.4229 0 0 69.423 0 0
69.423 0 0 69.4231 0 0 69.4231 0 0 69.4233
0 0 69.4233 0 0 69.4234 0 0 69.4234 0
0 69.4235 0 0 69.4235 0 0 69.4236 0 0
69.4236 0 0 69.4237 0 0 69.4237 0 0 69.4239
0 0 69.4239 0 0 69.424 0 0 69.424 0
0 69.4241 0 0 69.4241 0 0 69.4242 0 0
69.4242 0 0 69.4243 0 0 69.4243 0 0 69.4245
0 0 69.4245 0 0 69.4246 0 0 69.4246 0
0 69.4247 0 0 69.4247 0 0 69.4248 0 0
69.4248 0 0 69.425 0 0 69.425 0 0 69.4251
0 0 69.4251 0 0 69.4252 0 0 69.4252 0
0 69.4253 0 0 69.4253 0 0 69.4255 0 0
69.4255 0 0 69.4256 0 0 69.4256 0 0 69.4257
0 0 69.4257 0 0 69.4258 0 0 69.4258 0
0 69.4259 0 0 69.4259 0 0 69.4261 0 0
69.4261 0 0 69.4262 0 0 69.4262 0 0 69.4263
0 0 69.4263 0 0 69.4264 0 0 69.4264 0
0 69.4265 0 0 69.4265 0 0 69.4267 0 0
69.4267 0 0 69.4268 0 0 69.4268 0 0 69.4269
0 0 69.4269 0 0 69.4271 0 0 69.4271 0
0 69.4272 0 0 69.4272 0 0 69.4273 0 0
69.4273 0 0 69.4275 0 0 69.4275 0 0 69.4276
0 0 69.4276 0 0 69.4277 0 0 69.4277 0
0 69.4279 0 0 69.4279 0 0 69.428 0 0
69.428 0 0 69.4282 0 0 69.4282 0 0 69.4283
0 0 69.4283 0 0 69.4285 0 0 69.4285 0
0 69.4286 0 0 69.4286 0 0 69.4287 0 0
69.4287 0 0 69.4289 0 0 69.4289 0 0 69.4291
0 0 69.4291 0 0 69.4292 0 0 69.4292 0
0 69.4294 0 0 69.4294 0 0 69.4295 0 0
69.4295 0 0 69.4297 0 0 69.4297 0 0 69.4299
0 0 69.4299 0 0 69.43 0 0 69.43 0
0 69.4302 0 0 69.4302 0 0 69.4304 0 0
69.4304 0 0 69.4305 0 0 69.4305 0 0 69.4307
0 0 69.4307 0 0 69.4309 0 0 69.4309 0
0 69.4311 0 0 69.4311 0 0 69.4313 0 0
69.4313 0 0 69.4314 0 0 69.4314 0 0 69.4316
0 0 69.4316 0 0 69.4318 0 0 69.4318 0
0 69.432 0 0 69.432 0 0 69.4322 0 0
69.4322 0 0 69.4324 0 0 69.4324 0 0 69.4326
0 0 69.4326 0 0 69.4328 0 0 69.4328 0
0 69.433 0 0 69.433 0 0 69.4332 0 0
69.4332 0 0 69.4334 0 0 69.4334 0 0 69.4337
0 0 69.4337 0 0 69.4339 0 0 69.4339 0
0 69.4341 0 0 69.4341 0 0 69.4343 0 0
69.4343 0 0 69.4345 0 0 69.4345 0 0 69.4348
0 0 69.4348 0 0 69.435 0 0 69.435 0
0 69.4352 0 0 69.4352 0 0 69.4355 0 0
69.4355 0 0 69.4357 0 0 69.4357 0 0 69.436
0 0 69.436 0 0 69.4362 0 0 69.4362 0
0 69.4365 0 0 69.4365 0 0 69.4367 0 0
69.4367 0 0 69.437 0 0 69.437 0 0 69.4372
0 0 69.4372 0 0 69.4375 0 0 69.4375 0
0 69.4378 0 0 69.4378 0 0 69.438 0 0
69.438 0 0 69.4383 0 0 69.4383 0 0 69.4386
0 0 69.4386 0 0 69.4389 0 0 69.4389 0
0 69.4391 0 0 69.4391 0 0 69.4394 0 0
69.4394 0 0 69.4397 0 0 69.4397 0 0 69.44
0 0 69.44 0 0 69.4403 0 0 69.4403 0
0 69.4406 0 0 69.4406 0 0 69.4409 0 0
69.4409 0 0 69.4412 0 0 69.4412 0 0 69.4415
0 0 69.4415 0 0 69.4419 0 0 69.4419 0
0 69.4422 0 0 69.4422 0 0 69.4425 0 0
69.4425 0 0 69.4428 0 0 69.4428 0 0 69.4432
0 0 69.4432 0 0 69.4435 0 0 69.4435 0
0 69.4439 0 0 69.4439 0 0 69.4442 0 0
69.4442 0 0 69.4446 0 0 69.4446 0 0 69.4449
0 0 69.4449 0 0 69.4453 0 0 69.4453 0
0 69.4457 0 0 69.4457 0 0 69.446 0 0
69.446 0 0 69.4464 0 0 69.4464 0 0 69.4468
0 0 69.4468 0 0 69.4472 0 0 69.4472 0
0 69.4476 0 0 69.4476 0 0 69.448 0 0
69.448 0 0 69.4484 0 0 69.4484 0 0 69.4488
0 0 69.4488 0 0 69.4492 0 0 69.4492 0
0 69.4496 0 0 69.4496 0 0 69.45 0 0
69.45 0 0 69.4505 0 0 69.4505 0 0 69.4509
0 0 69.4509 0 0 69.4513 0 0 69.4513 0
0 69.4518 0 0 69.4518 0 0 69.4522 0 0
69.4522 0 0 69.4527 0 0 69.4527 0 0 69.4532
0 0 69.4532 0 0 69.4536 0 0 69.4536 0
0 69.4541 0 0 69.4541 0 0 69.4546 0 0
69.4546 0 0 69.4551 0 0 69.4551 0 0 69.4556
0 0 69.4556 0 0 69.4561 0 0 69.4561 0
0 69.4566 0 0 69.4566 0 0 69.4571 0 0
69.4571 0 0 69.4576 0 0 69.4576 0 0 69.4581
0 0 69.4581 0 0 69.4586 0 0 69.4586 0
0 69.4592 0 0 69.4592 0 0 69.4597 0 0
69.4597 0 0 69.4603 0 0 69.4603 0 0 69.4608
0 0 69.4608 0 0 69.4614 0 0 69.4614 0
0 69.462 0 0 69.462 0 0 69.4626 0 0
69.4626 0 0 69.4632 0 0 69.4632 0 0 69.4637
0 0 69.4637 0 0 69.4643 0 0 69.4643 0
0 69.465 0 0 69.465 0 0 69.4656 0 0
69.4656 0 0 69.4662 0 0 69.4662 0 0 69.4668
0 0 69.4668 0 0 69.4675 0 0 69.4675 0
0 69.4681 0 0 69.4681 0 0 69.4688 0 0
69.4688 0 0 69.4694 0 0 69.4694 0 0 69.4701
0 0 69.4701 0 0 69.4708 0 0 69.4708 0
0 69.4715 0 0 69.4715 0 0 69.4722 0 0
69.4722 0 0 69.4729 0 0 69.4729 0 0 69.4736
0 0 69.4736 0 0 69.4743 0 0 69.4743 0
0 69.475 0 0 69.475 0 0 69.4758 0 0
69.4758 0 0 69.4765 0 0 69.4765 0 0 69.4773
0 0 69.4773 0 0 69.478 0 0 69.478 0
0 69.4788 0 0 69.4788 0 0 69.4796 0 0
69.4796 0 0 69.4804 0 0 69.4804 0 0 69.4812
0 0 69.4812 0 0 69.482 0 0 69.482 0
0 69.4828 0 0 69.4828 0 0 69.4836 0 0
69.4836 0 0 69.4845 0 0 69.4845 0 0 69.4853
0 0 69.4853 0 0 69.4862 0 0 69.4862 0
0 69.487 0 0 69.487 0 0 69.4879 0 0
69.4879 0 0 69.4888 0 0 69.4888 0 0 69.4897
0 0 69.4897 0 0 69.4906 0 0 69.4906 0
0 69.4915 0 0 69.4915 0 0 69.4925 0 0
69.4925 0 0 69.4934 0 0 69.4934 0 0 69.4943
0 0 69.4943 0 0 69.4953 0 0 69.4953 0
0 69.4963 0 0 69.4963 0 0 69.4972 0 0
69.4972 0 0 69.4982 0 0 69.4982 0 0 69.4992
0 0 69.4992 0 0 69.5003 0 0 69.5003 0
0 69.5013 0 0 69.5013 0 0 69.5023 0 0
69.5023 0 0 69.5033 0 0 69.5033 0 0 69.5045
0 0 69.5045 0 0 69.5057 0 0 69.5057 0
0 69.507 0 0 69.507 0 0 69.5083 0 0
69.5083 0 0 69.5096 0 0 69.5096 0 0 69.5109
0 0 69.5109 0 0 69.5122 0 0 69.5122 0
0 69.5135 0 0 69.5135 0 0 69.5148 0 0
69.5148 0 0 69.5161 0 0 69.5161 0 0 69.5174
0 0 69.5174 0 0 69.5187 0 0 69.5187 0
0 69.52 0 0 69.52 0 0 69.5213 0 0
69.5213 0 0 69.5226 0 0 69.5226 0 0 69.5239
0 0 69.5239 0 0 69.5252 0 0 69.5252 0
0 69.5265 0 0 69.5265 0 0 69.5278 0 0
69.5278 0 0 69.5291 0 0 69.5291 0 0 69.5304
0 0 69.5304 0 0 69.5317 0 0 69.5317 0
0 69.533 0 0 69.533 0 0 69.5343 0 0
69.5343 0 0 69.5356 0 0 69.5356 0 0 69.5368
0 0 69.5368 0 0 69.5381 0 0 69.5381 0
0 69.5394 0 0 69.5394 0 0 69.5407 0 0
69.5407 0 0 69.542 0 0 69.542 0 0 69.5433
0 0 69.5433 0 0 69.5445 0 0 69.5445 0
0 69.5458 0 0 69.5458 0 0 69.5471 0 0
69.5471 0 0 69.5484 0 0 69.5484 0 0 69.5496
0 0 69.5496 0 0 69.5509 0 0 69.5509 0
0 69.5522 0 0 69.5522 0 0 69.5535 0 0
69.5535 0 0 69.5547 0 0 69.5547 0 0 69.556
0 0 69.556 0 0 69.5573 0 0 69.5573 0
0 69.5585 0 0 69.5585 0 0 69.5598 0 0
69.5598 0 0 69.5611 0 0 69.5611 0 0 69.5623
0 0 69.5623 0 0 69.5636 0 0 69.5636 0
0 69.5648 0 0 69.5648 0 0 69.5661 0 0
69.5661 0 0 69.5674 0 0 69.5674 0 0 69.5686
0 0 69.5686 0 0 69.5699 0 0 69.5699 0
0 69.5711 0 0 69.5711 0 0 69.5724 0 0
69.5724 0 0 69.5736 0 0 69.5736 0 0 69.5749
0 0 69.5749 0 0 69.5761 0 0 69.5761 0
0 69.5774 0 0 69.5774 0 0 69.5786 0 0
69.5786 0 0 69.5799 0 0 69.5799 0 0 69.5811
0 0 69.5811 0 0 69.5824 0 0 69.5824 0
0 69.5836 0 0 69.5836 0 0 69.5849 0 0
69.5849 0 0 69.5861 0 0 69.5861 0 0 69.5874
0 0 69.5874 0 0 69.5886 0 0 69.5886 0
0 69.5899 0 0 69.5899 0 0 69.5911 0 0
69.5911 0 0 69.5923 0 0 69.5923 0 0 69.5936
0 0 69.5936 0 0 69.5948 0 0 69.5948 0
0 69.5961 0 0 69.5961 0 0 69.5973 0 0
69.5973 0 0 69.5985 0 0 69.5985 0 0 69.5998
0 0 69.5998 0 0 69.601 0 0 69.601 0
0 69.6022 0 0 69.6022 0 0 69.6035 0 0
69.6035 0 0 69.6047 0 0 69.6047 0 0 69.606
0 0 69.606 0 0 69.6072 0 0 69.6072 0
0 69.6084 0 0 69.6084 0 0 69.6097 0 0
69.6097 0 0 69.6109 0 0 69.6109 0 0 69.6121
0 0 69.6121 0 0 69.6134 0 0 69.6134 0
0 69.6146 0 0 69.6146 0 0 69.6158 0 0
69.6158 0 0 69.6171 0 0 69.6171 0 0 69.6183
0 0 69.6183 0 0 69.6195 0 0 69.6195 0
0 69.6208 0 0 69.6208 0 0 69.6219 0 0
69.6219 0 0 69.6234 0 0 69.6234 0 0 69.6243
0 0 69.6243 0 0 
C 3 1092 float
-0.328655 1 0.05 -0.328655 1 0.05 -0.324038 1 0.05 -0.324038 1
0.05 -0.314927 1 0.05 -0.314927 1 0.05 -0.306056 1 0.05
-0.306056 1 0.05 -0.297419 1 0.05 -0.297419 1 0.05 -0.28901
1 0.05 -0.28901 1 0.05 -0.280823 1 0.05 -0.280823 1
0.05 -0.272851 1 0.05 -0.272851 1 0.05 -0.26509 1 0.05
-0.26509 1 0.05 -0.257533 1 0.05 -0.257533 1 0.05 -0.250175
1 0.05 -0.250175 1 0.05 -0.243012 1 0.05 -0.243012 1
0.05 -0.236037 1 0.05 -0.236037 1 0.05 -0.229246 1 0.05
-0.229246 1 0.05 -0.222634 1 0.05 -0.222634 1 0.05 -0.216197
1 0.05 -0.216197 1 0.05 -0.209929 1 0.05 -0.209929 1
0.05 -0.203827 1 0.05 -0.203827 1 0.05 -0.197885 1 0.05
-0.197885 1 0.05 -0.1921 1 0.05 -0.1921 1 0.05 -0.186468
1 0.05 -0.186468 1 0.05 -0.180984 1 0.05 -0.180984 1
0.05 -0.175645 1 0.05 -0.175645 1 0.05 -0.170446 1 0.05
-0.170446 1 0.05 -0.165385 1 0.05 -0.165385 1 0.05 -0.160457
1 0.05 -0.160457 1 0.05 -0.155658 1 0.05 -0.155658 1
0.05 -0.150987 1 0.05 -0.150987 1 0.05 -0.146439 1 0.05
-0.146439 1 0.05 -0.14201 1 0.05 -0.14201 1 0.05 -0.137698
1 0.05 -0.137698 1 0.05 -0.1335 1 0.05 -0.1335 1
0.05 -0.129413 1 0.05 -0.129413 1 0.05 -0.125433 1 0.05
-0.125433 1 0.05 -0.121559 1 0.05 -0.121559 1 0.05 -0.117786
1 0.05 -0.117786 1 0.05 -0.114113 1 0.05 -0.114113 1
0.05 -0.110537 1 0.05 -0.110537 1 0.05 -0.107055 1 0.05
-0.107055 1 0.05 -0.103665 1 0.05 -0.103665 1 0.05 -0.100364
1 0.05 -0.100364 1 0.05 -0.0971507 1 0.05 -0.0971507 1
0.05 -0.0940218 1 0.05 -0.0940218 1 0.05 -0.0909753 1 0.05
-0.0909753 1 0.05 -0.0880092 1 0.05 -0.0880092 1 0.05 -0.0851213
1 0.05 -0.0851213 1 0.05 -0.0823095 1 0.05 -0.0823095 1
0.05 -0.0795719 1 0.05 -0.0795719 1 0.05 -0.0769065 1 0.05
-0.0769065 1 0.05 -0.0743113 1 0.05 -0.0743113 1 0.05 -0.0717845
1 0.05 -0.0717845 1 0.05 -0.0693244 1 0.05 -0.0693244 1
0.05 -0.0669291 1 0.05 -0.0669291 1 0.05 -0.064597 1 0.05
-0.064597 1 0.05 -0.0623264 1 0.05 -0.0623264 1 0.05 -0.0601156
1 0.05 -0.0601156 1 0.05 -0.0579632 1 0.05 -0.0579632 1
0.05 -0.0558675 1 0.05 -0.0558675 1 0.05 -0.053827 1 0.05
-0.053827 1 0.05 -0.0518403 1 0.05 -0.0518403 1 0.05 -0.0499061
1 0.05 -0.0499061 1 0.05 -0.0480228 1 0.05 -0.0480228 1
0.05 -0.0461891 1 0.05 -0.0461891 1 0.05 -0.0444039 1 0.05
-0.0444039 1 0.05 -0.0426657 1 0.05 -0.0426657 1 0.05 -0.0409733
1 0.05 -0.0409733 1 0.05 -0.0393255 1 0.05 -0.0393255 1
0.05 -0.0377212 1 0.05 -0.0377212 1 0.05 -0.0361592 1 0.05
-0.0361592 1 0.05 -0.0346384 1 0.05 -0.0346384 1 0.05 -0.0331576
1 0.05 -0.0331576 1 0.05 -0.031716 1 0.05 -0.031716 1
0.05 -0.0303213 1 0.05 -0.0303213 1 0.05 -0.0289743 1 0.05
-0.0289743 1 0.05 -0.0276501 1 0.05 -0.0276501 1 0.05 -0.026332
1 0.05 -0.026332 1 0.05 -0.0250199 1 0.05 -0.0250199 1
0.05 -0.0237138 1 0.05 -0.0237138 1 0.05 -0.0224136 1 0.05
-0.0224136 1 0.05 -0.0211194 1 0.05 -0.0211194 1 0.05 -0.0198311
1 0.05 -0.0198311 1 0.05 -0.0185487 1 0.05 -0.0185487 1
0.05 -0.0172722 1 0.05 -0.0172722 1 0.05 -0.0160015 1 0.05
-0.0160015 1 0.05 -0.0147366 1 0.05 -0.0147366 1 0.05 -0.0134775
1 0.05 -0.0134775 1 0.05 -0.0122242 1 0.05 -0.0122242 1
0.05 -0.0109765 1 0.05 -0.0109765 1 0.05 -0.0097346 1 0.05
-0.0097346 1 0.05 -0.00849835 1 0.05 -0.00849835 1 0.05 -0.00726775
1 0.05 -0.00726775 1 0.05 -0.00604277 1 0.05 -0.00604277 1
0.05 -0.0048234 1 0.05 -0.0048234 1 0.05 -0.00360959 1 0.05
-0.00360959 1 0.05 -0.00240134 1 0.05 -0.00240134 1 0.05 -0.0011986
1 0.05 -0.0011986 1 0.05 -5.64468e-05 1 0.05 -5.64468e-05 1
0.05 0.00097199 1 0.05 0.00097199 1 0.05 0.0019457 1 0.05
0.0019457 1 0.05 0.00292171 1 0.05 0.00292171 1 0.05 0.00390002
1 0.05 0.00390002 1 0.05 0.00488064 1 0.05 0.00488064 1
0.05 0.00586358 1 0.05 0.00586358 1 0.05 0.00684883 1 0.05
0.00684883 1 0.05 0.00783642 1 0.05 0.00783642 1 0.05 0.00882633
1 0.05 0.00882633 1 0.05 0.00981858 1 0.05 0.00981858 1
0.05 0.0108132 1 0.05 0.0108132 1 0.05 0.0118101 1 0.05
0.0118101 1 0.05 0.0128094 1 0.05 0.0128094 1 0.05 0.013811
1 0.05 0.013811 1 0.05 0.0148151 1 0.05 0.0148151 1
0.05 0.0158214 1 0.05 0.0158214 1 0.05 0.0168302 1 0.05
0.0168302 1 0.05 0.0178413 1 0.05 0.0178413 1 0.05 0.0188549
1 0.05 0.0188549 1 0.05 0.0198708 1 0.05 0.0198708 1
0.05 0.0208891 1 0.05 0.0208891 1 0.05 0.0219098 1 0.05
0.0219098 1 0.05 0.0229329 1 0.05 0.0229329 1 0.05 0.0239585
1 0.05 0.0239585 1 0.05 0.0249864 1 0.05 0.0249864 1
0.05 0.0260168 1 0.05 0.0260168 1 0.05 0.0270496 1 0.05
0.0270496 1 0.05 0.0280849 1 0.05 0.0280849 1 0.05 0.0291226
1 0.05 0.0291226 1 0.05 0.0301628 1 0.05 0.0301628 1
0.05 0.0312054 1 0.05 0.0312054 1 0.05 0.0322504 1 0.05
0.0322504 1 0.05 0.033298 1 0.05 0.033298 1 0.05 0.034348
1 0.05 0.034348 1 0.05 0.0354004 1 0.05 0.0354004 1
0.05 0.0364554 1 0.05 0.0364554 1 0.05 0.0375129 1 0.05
0.0375129 1 0.05 0.0385728 1 0.05 0.0385728 1 0.05 0.0396353
1 0.05 0.0396353 1 0.05 0.0407002 1 0.05 0.0407002 1
0.05 0.0417677 1 0.05 0.0417677 1 0.05 0.0428377 1 0.05
0.0428377 1 0.05 0.0439102 1 0.05 0.0439102 1 0.05 0.0449853
1 0.05 0.0449853 1 0.05 0.0460629 1 0.05 0.0460629 1
0.05 0.047143 1 0.05 0.047143 1 0.05 0.0482257 1 0.05
0.0482257 1 0.05 0.0493109 1 0.05 0.0493109 1 0.05 0.0503987
1 0.05 0.0503987 1 0.05 0.0514891 1 0.05 0.0514891 1
0.05 0.052582 1 0.05 0.052582 1 0.05 0.0536775 1 0.05
0.0536775 1 0.05 0.0547756 1 0.05 0.0547756 1 0.05 0.0558763
1 0.05 0.0558763 1 0.05 0.0569796 1 0.05 0.0569796 1
0.05 0.0580855 1 0.05 0.0580855 1 0.05 0.059194 1 0.05
0.059194 1 0.05 0.0603051 1 0.05 0.0603051 1 0.05 0.0614189
1 0.05 0.0614189 1 0.05 0.0625353 1 0.05 0.0625353 1
0.05 0.0636543 1 0.05 0.0636543 1 0.05 0.0647759 1 0.05
0.0647759 1 0.05 0.0659002 1 0.05 0.0659002 1 0.05 0.0670272
1 0.05 0.0670272 1 0.05 0.0681568 1 0.05 0.0681568 1
0.05 0.0692891 1 0.05 0.0692891 1 0.05 0.070424 1 0.05
0.070424 1 0.05 0.0715616 1 0.05 0.0715616 1 0.05 0.0727019
1 0.05 0.0727019 1 0.05 0.0738449 1 0.05 0.0738449 1
0.05 0.0749906 1 0.05 0.0749906 1 0.05 0.076139 1 0.05
0.076139 1 0.05 0.0772902 1 0.05 0.0772902 1 0.05 0.078444
1 0.05 0.078444 1 0.05 0.0796005 1 0.05 0.0796005 1
0.05 0.0807598 1 0.05 0.0807598 1 0.05 0.0819219 1 0.05
0.0819219 1 0.05 0.0830866 1 0.05 0.0830866 1 0.05 0.0842541
1 0.05 0.0842541 1 0.05 0.0854244 1 0.05 0.0854244 1
0.05 0.0865974 1 0.05 0.0865974 1 0.05 0.0877732 1 0.05
0.0877732 1 0.05 0.0889518 1 0.05 0.0889518 1 0.05 0.0901332
1 0.05 0.0901332 1 0.05 0.0913173 1 0.05 0.0913173 1
0.05 0.0925042 1 0.05 0.0925042 1 0.05 0.093694 1 0.05
0.093694 1 0.05 0.0948865 1 0.05 0.0948865 1 0.05 0.0960819
1 0.05 0.0960819 1 0.05 0.0972801 1 0.05 0.0972801 1
0.05 0.0984811 1 0.05 0.0984811 1 0.05 0.0996849 1 0.05
0.0996849 1 0.05 0.100892 1 0.05 0.100892 1 0.05 0.102101
1 0.05 0.102101 1 0.05 0.103314 1 0.05 0.103314 1
0.05 0.104529 1 0.05 0.104529 1 0.05 0.105747 1 0.05
0.105747 1 0.05 0.106968 1 0.05 0.106968 1 0.05 0.108192
1 0.05 0.108192 1 0.05 0.109419 1 0.05 0.109419 1
0.05 0.110648 1 0.05 0.110648 1 0.05 0.111881 1 0.05
0.111881 1 0.05 0.113116 1 0.05 0.113116 1 0.05 0.114355
1 0.05 0.114355 1 0.05 0.115596 1 0.05 0.115596 1
0.05 0.11684 1 0.05 0.11684 1 0.05 0.118087 1 0.05
0.118087 1 0.05 0.119337 1 0.05 0.119337 1 0.05 0.120591
1 0.05 0.120591 1 0.05 0.121847 1 0.05 0.121847 1
0.05 0.123106 1 0.05 0.123106 1 0.05 0.124368 1 0.05
0.124368 1 0.05 0.125632 1 0.05 0.125632 1 0.05 0.1269
1 0.05 0.1269 1 0.05 0.128171 1 0.05 0.128171 1
0.05 0.129445 1 0.05 0.129445 1 0.05 0.130722 1 0.05
0.130722 1 0.05 0.132002 1 0.05 0.132002 1 0.05 0.133285
1 0.05 0.133285 1 0.05 0.134571 1 0.05 0.134571 1
0.05 0.13586 1 0.05 0.13586 1 0.05 0.137152 1 0.05
0.137152 1 0.05 0.138447 1 0.05 0.138447 1 0.05 0.139745
1 0.05 0.139745 1 0.05 0.141047 1 0.05 0.141047 1
0.05 0.142351 1 0.05 0.142351 1 0.05 0.143658 1 0.05
0.143658 1 0.05 0.144969 1 0.05 0.144969 1 0.05 0.146282
1 0.05 0.146282 1 0.05 0.147599 1 0.05 0.147599 1
0.05 0.148919 1 0.05 0.148919 1 0.05 0.150242 1 0.05
0.150242 1 0.05 0.151568 1 0.05 0.151568 1 0.05 0.152897
1 0.05 0.152897 1 0.05 0.154229 1 0.05 0.154229 1
0.05 0.155565 1 0.05 0.155565 1 0.05 0.156903 1 0.05
0.156903 1 0.05 0.158245 1 0.05 0.158245 1 0.05 0.15959
1 0.05 0.15959 1 0.05 0.160938 1 0.05 0.160938 1
0.05 0.162289 1 0.05 0.162289 1 0.05 0.163643 1 0.05
0.163643 1 0.05 0.165001 1 0.05 0.165001 1 0.05 0.166362
1 0.05 0.166362 1 0.05 0.167726 1 0.05 0.167726 1
0.05 0.169093 1 0.05 0.169093 1 0.05 0.170464 1 0.05
0.170464 1 0.05 0.171838 1 0.05 0.171838 1 0.05 0.173214
1 0.05 0.173214 1 0.05 0.174595 1 0.05 0.174595 1
0.05 0.175978 1 0.05 0.175978 1 0.05 0.177365 1 0.05
0.177365 1 0.05 0.178755 1 0.05 0.178755 1 0.05 0.180148
1 0.05 0.180148 1 0.05 0.181545 1 0.05 0.181545 1
0.05 0.182945 1 0.05 0.182945 1 0.05 0.184348 1 0.05
0.184348 1 0.05 0.185754 1 0.05 0.185754 1 0.05 0.187164
1 0.05 0.187164 1 0.05 0.188577 1 0.05 0.188577 1
0.05 0.189994 1 0.05 0.189994 1 0.05 0.191414 1 0.05
0.191414 1 0.05 0.192837 1 0.05 0.192837 1 0.05 0.194263
1 0.05 0.194263 1 0.05 0.195693 1 0.05 0.195693 1
0.05 0.197127 1 0.05 0.197127 1 0.05 0.198563 1 0.05
0.198563 1 0.05 0.200003 1 0.05 0.200003 1 0.05 0.201447
1 0.05 0.201447 1 0.05 0.202894 1 0.05 0.202894 1
0.05 0.204344 1 0.05 0.204344 1 0.05 0.205798 1 0.05
0.205798 1 0.05 0.207214 1 0.05 0.207214 1 0.05 0.208555
1 0.05 0.208555 1 0.05 0.209867 1 0.05 0.209867 1
0.05 0.211193 1 0.05 0.211193 1 0.05 0.212533 1 0.05
0.212533 1 0.05 0.213888 1 0.05 0.213888 1 0.05 0.215258
1 0.05 0.215258 1 0.05 0.216643 1 0.05 0.216643 1
0.05 0.218042 1 0.05 0.218042 1 0.05 0.219457 1 0.05
0.219457 1 0.05 0.220887 1 0.05 0.220887 1 0.05 0.222333
1 0.05 0.222333 1 0.05 0.223795 1 0.05 0.223795 1
0.05 0.225272 1 0.05 0.225272 1 0.05 0.226766 1 0.05
0.226766 1 0.05 0.228275 1 0.05 0.228275 1 0.05 0.229801
1 0.05 0.229801 1 0.05 0.231344 1 0.05 0.231344 1
0.05 0.232904 1 0.05 0.232904 1 0.05 0.23448 1 0.05
0.23448 1 0.05 0.236073 1 0.05 0.236073 1 0.05 0.237684
1 0.05 0.237684 1 0.05 0.239313 1 0.05 0.239313 1
0.05 0.240959 1 0.05 0.240959 1 0.05 0.242623 1 0.05
0.242623 1 0.05 0.244305 1 0.05 0.244305 1 0.05 0.246005
1 0.05 0.246005 1 0.05 0.247724 1 0.05 0.247724 1
0.05 0.249461 1 0.05 0.249461 1 0.05 0.251218 1 0.05
0.251218 1 0.05 0.252993 1 0.05 0.252993 1 0.05 0.254788
1 0.05 0.254788 1 0.05 0.256602 1 0.05 0.256602 1
0.05 0.258436 1 0.05 0.258436 1 0.05 0.26029 1 0.05
0.26029 1 0.05 0.262164 1 0.05 0.262164 1 0.05 0.264059
1 0.05 0.264059 1 0.05 0.265974 1 0.05 0.265974 1
0.05 0.26791 1 0.05 0.26791 1 0.05 0.269867 1 0.05
0.269867 1 0.05 0.271845 1 0.05 0.271845 1 0.05 0.273844
1 0.05 0.273844 1 0.05 0.275866 1 0.05 0.275866 1
0.05 0.277909 1 0.05 0.277909 1 0.05 0.279975 1 0.05
0.279975 1 0.05 0.282063 1 0.05 0.282063 1 0.05 0.284174
1 0.05 0.284174 1 0.05 0.286307 1 0.05 0.286307 1
0.05 0.288464 1 0.05 0.288464 1 0.05 0.290644 1 0.05
0.290644 1 0.05 0.292849 1 0.05 0.292849 1 0.05 0.295076
1 0.05 0.295076 1 0.05 0.297329 1 0.05 0.297329 1
0.05 0.299605 1 0.05 0.299605 1 0.05 0.301907 1 0.05
0.301907 1 0.05 0.304233 1 0.05 0.304233 1 0.05 0.306585
1 0.05 0.306585 1 0.05 0.308962 1 0.05 0.308962 1
0.05 0.311365 1 0.05 0.311365 1 0.05 0.313794 1 0.05
0.313794 1 0.05 0.31625 1 0.05 0.31625 1 0.05 0.318732
1 0.05 0.318732 1 0.05 0.321242 1 0.05 0.321242 1
0.05 0.323778 1 0.05 0.323778 1 0.05 0.326342 1 0.05
0.326342 1 0.05 0.328935 1 0.05 0.328935 1 0.05 0.331555
1 0.05 0.331555 1 0.05 0.334203 1 0.05 0.334203 1
0.05 0.336881 1 0.05 0.336881 1 0.05 0.339587 1 0.05
0.339587 1 0.05 0.342323 1 0.05 0.342323 1 0.05 0.345089
1 0.05 0.345089 1 0.05 0.347885 1 0.05 0.347885 1
0.05 0.350711 1 0.05 0.350711 1 0.05 0.353568 1 0.05
0.353568 1 0.05 0.356456 1 0.05 0.356456 1 0.05 0.359375
1 0.05 0.359375 1 0.05 0.362326 1 0.05 0.362326 1
0.05 0.365309 1 0.05 0.365309 1 0.05 0.368325 1 0.05
0.368325 1 0.05 0.371373 1 0.05 0.371373 1 0.05 0.374455
1 0.05 0.374455 1 0.05 0.37757 1 0.05 0.37757 1
0.05 0.380719 1 0.05 0.380719 1 0.05 0.383902 1 0.05
0.383902 1 0.05 0.387119 1 0.05 0.387119 1 0.05 0.390372
1 0.05 0.390372 1 0.05 0.39366 1 0.05 0.39366 1
0.05 0.396984 1 0.05 0.396984 1 0.05 0.400343 1 0.05
0.400343 1 0.05 0.40374 1 0.05 0.40374 1 0.05 0.407173
1 0.05 0.407173 1 0.05 0.410644 1 0.05 0.410644 1
0.05 0.414152 1 0.05 0.414152 1 0.05 0.417698 1 0.05
0.417698 1 0.05 0.421283 1 0.05 0.421283 1 0.05 0.424907
1 0.05 0.424907 1 0.05 0.428571 1 0.05 0.428571 1
0.05 0.432274 1 0.05 0.432274 1 0.05 0.436017 1 0.05
0.436017 1 0.05 0.439801 1 0.05 0.439801 1 0.05 0.443627
1 0.05 0.443627 1 0.05 0.447493 1 0.05 0.447493 1
0.05 0.451402 1 0.05 0.451402 1 0.05 0.455354 1 0.05
0.455354 1 0.05 0.459348 1 0.05 0.459348 1 0.05 0.463386
1 0.05 0.463386 1 0.05 0.467467 1 0.05 0.467467 1
0.05 0.471593 1 0.05 0.471593 1 0.05 0.475764 1 0.05
0.475764 1 0.05 0.47998 1 0.05 0.47998 1 0.05 0.484242
1 0.05 0.484242 1 0.05 0.48855 1 0.05 0.48855 1
0.05 0.492905 1 0.05 0.492905 1 0.05 0.497308 1 0.05
0.497308 1 0.05 0.501758 1 0.05 0.501758 1 0.05 0.506257
1 0.05 0.506257 1 0.05 0.510804 1 0.05 0.510804 1
0.05 0.515401 1 0.05 0.515401 1 0.05 0.520048 1 0.05
0.520048 1 0.05 0.524746 1 0.05 0.524746 1 0.05 0.529494
1 0.05 0.529494 1 0.05 0.534294 1 0.05 0.534294 1
0.05 0.539147 1 0.05 0.539147 1 0.05 0.544052 1 0.05
0.544052 1 0.05 0.54901 1 0.05 0.54901 1 0.05 0.554022
1 0.05 0.554022 1 0.05 0.559089 1 0.05 0.559089 1
0.05 0.564211 1 0.05 0.564211 1 0.05 0.569388 1 0.05
0.569388 1 0.05 0.574622 1 0.05 0.574622 1 0.05 0.579913
1 0.05 0.579913 1 0.05 0.585261 1 0.05 0.585261 1
0.05 0.590667 1 0.05 0.590667 1 0.05 0.596132 1 0.05
0.596132 1 0.05 0.601657 1 0.05 0.601657 1 0.05 0.607241
1 0.05 0.607241 1 0.05 0.612886 1 0.05 0.612886 1
0.05 0.618593 1 0.05 0.618593 1 0.05 0.624361 1 0.05
0.624361 1 0.05 0.630193 1 0.05 0.630193 1 0.05 0.636087
1 0.05 0.636087 1 0.05 0.642046 1 0.05 0.642046 1
0.05 0.64807 1 0.05 0.64807 1 0.05 0.654158 1 0.05
0.654158 1 0.05 0.660314 1 0.05 0.660314 1 0.05 0.666536
1 0.05 0.666536 1 0.05 0.672825 1 0.05 0.672825 1
0.05 0.679183 1 0.05 0.679183 1 0.05 0.68561 1 0.05
0.68561 1 0.05 0.692107 1 0.05 0.692107 1 0.05 0.698675
1 0.05 0.698675 1 0.05 0.705314 1 0.05 0.705314 1
0.05 0.712025 1 0.05 0.712025 1 0.05 0.718809 1 0.05
0.718809 1 0.05 0.725667 1 0.05 0.725667 1 0.05 0.7326
1 0.05 0.7326 1 0.05 0.739607 1 0.05 0.739607 1
0.05 0.746691 1 0.05 0.746691 1 0.05 0.753852 1 0.05
0.753852 1 0.05 0.761091 1 0.05 0.761091 1 0.05 0.768408
1 0.05 0.768408 1 0.05 0.775805 1 0.05 0.775805 1
0.05 0.783283 1 0.05 0.783283 1 0.05 0.790841 1 0.05
0.790841 1 0.05 0.798482 1 0.05 0.798482 1 0.05 0.806206
1 0.05 0.806206 1 0.05 0.814014 1 0.05 0.814014 1
0.05 0.821906 1 0.05 0.821906 1 0.05 0.829885 1 0.05
0.829885 1 0.05 0.83795 1 0.05 0.83795 1 0.05 0.846103
1 0.05 0.846103 1 0.05 0.854344 1 0.05 0.854344 1
0.05 0.862675 1 0.05 0.862675 1 0.05 0.871097 1 0.05
0.871097 1 0.05 0.87961 1 0.05 0.87961 1 0.05 0.888215
1 0.05 0.888215 1 0.05 0.896914 1 0.05 0.896914 1
0.05 0.905708 1 0.05 0.905708 1 0.05 0.914597 1 0.05
0.914597 1 0.05 0.923583 1 0.05 0.923583 1 0.05 0.933175
1 0.05 0.933175 1 0.05 0.943878 1 0.05 0.943878 1
0.05 0.955113 1 0.05 0.955113 1 0.05 0.966349 1 0.05
0.966349 1 0.05 0.977584 1 0.05 0.977584 1 0.05 0.988819
1 0.05 0.988819 1 0.05 1.00005 1 0.05 1.00005 1
0.05 1.01129 1 0.05 1.01129 1 0.05 1.02253 1 0.05
1.02253 1 0.05 1.03376 1 0.05 1.03376 1 0.05 1.045
1 0.05 1.045 1 0.05 1.05623 1 0.05 1.05623 1
0.05 1.06747 1 0.05 1.06747 1 0.05 1.0787 1 0.05
1.0787 1 0.05 1.08994 1 0.05 1.08994 1 0.05 1.10117
1 0.05 1.10117 1 0.05 1.11241 1 0.05 1.11241 1
0.05 1.12364 1 0.05 1.12364 1 0.05 1.13488 1 0.05
1.13488 1 0.05 1.14611 1 0.05 1.14611 1 0.05 1.15735
1 0.05 1.15735 1 0.05 1.16858 1 0.05 1.16858 1
0.05 1.17982 1 0.05 1.17982 1 0.05 1.19106 1 0.05
1.19106 1 0.05 1.20229 1 0.05 1.20229 1 0.05 1.21353
1 0.05 1.21353 1 0.05 1.22476 1 0.05 1.22476 1
0.05 1.236 1 0.05 1.236 1 0.05 1.24723 1 0.05
1.24723 1 0.05 1.25847 1 0.05 1.25847 1 0.05 1.2697
1 0.05 1.2697 1 0.05 1.28094 1 0.05 1.28094 1
0.05 1.29217 1 0.05 1.29217 1 0.05 1.30341 1 0.05
1.30341 1 0.05 1.31464 1 0.05 1.31464 1 0.05 1.32588
1 0.05 1.32588 1 0.05 1.33711 1 0.05 1.33711 1
0.05 1.34835 1 0.05 1.34835 1 0.05 1.35959 1 0.05
1.35959 1 0.05 1.37082 1 0.05 1.37082 1 0.05 1.38206
1 0.05 1.38206 1 0.05 1.39329 1 0.05 1.39329 1
0.05 1.40453 1 0.05 1.40453 1 0.05 1.41576 1 0.05
1.41576 1 0.05 1.427 1 0.05 1.427 1 0.05 1.43823
1 0.05 1.43823 1 0.05 1.44947 1 0.05 1.44947 1
0.05 1.4607 1 0.05 1.4607 1 0.05 1.47194 1 0.05
1.47194 1 0.05 1.48317 1 0.05 1.48317 1 0.05 1.49441
1 0.05 1.49441 1 0.05 1.50564 1 0.05 1.50564 1
0.05 1.51688 1 0.05 1.51688 1 0.05 1.52812 1 0.05
1.52812 1 0.05 1.53935 1 0.05 1.53935 1 0.05 1.55059
1 0.05 1.55059 1 0.05 1.56182 1 0.05 1.56182 1
0.05 1.57306 1 0.05 1.57306 1 0.05 1.58429 1 0.05
1.58429 1 0.05 1.59553 1 0.05 1.59553 1 0.05 1.60676
1 0.05 1.60676 1 0.05 1.618 1 0.05 1.618 1
0.05 1.62923 1 0.05 1.62923 1 0.05 1.64047 1 0.05
1.64047 1 0.05 1.6517 1 0.05 1.6517 1 0.05 1.66294
1 0.05 1.66294 1 0.05 1.67418 1 0.05 1.67418 1
0.05 1.68541 1 0.05 1.68541 1 0.05 1.69665 1 0.05
1.69665 1 0.05 1.70788 1 0.05 1.70788 1 0.05 1.71912
1 0.05 1.71912 1 0.05 1.73035 1 0.05 1.73035 1
0.05 1.74159 1 0.05 1.74159 1 0.05 1.75282 1 0.05
1.75282 1 0.05 1.76406 1 0.05 1.76406 1 0.05 1.77529
1 0.05 1.77529 1 0.05 1.78653 1 0.05 1.78653 1
0.05 1.79776 1 0.05 1.79776 1 0.05 1.809 1 0.05
1.809 1 0.05 1.82023 1 0.05 1.82023 1 0.05 1.83147
1 0.05 1.83147 1 0.05 1.84271 1 0.05 1.84271 1
0.05 1.85394 1 0.05 1.85394 1 0.05 1.86518 1 0.05
1.86518 1 0.05 1.87641 1 0.05 1.87641 1 0.05 1.88765
1 0.05 1.88765 1 0.05 1.89888 1 0.05 1.89888 1
0.05 1.91012 1 0.05 1.91012 1 0.05 1.92135 1 0.05
1.92135 1 0.05 1.93259 1 0.05 1.93259 1 0.05 1.94382
1 0.05 1.94382 1 0.05 1.95506 1 0.05 1.95506 1
0.05 1.96629 1 0.05 1.96629 1 0.05 1.97753 1 0.05
1.97753 1 0.05 1.98876 1 0.05 1.98876 1 0.05 1.99438
1 0.05 1.99438 1 0.05 
