# vtk DataFile Version 2.0
outlet
ASCII
DATASET POLYDATA
POINTS 772 float
2 0 0 2 4.9308e-05 0 2 4.9308e-05 0.1 2 0
0.1 2 9.93539e-05 0 2 9.93539e-05 0.1 2 0.000150149 0
2 0.000150149 0.1 2 0.000201704 0 2 0.000201704 0.1 2
0.00025403 0 2 0.00025403 0.1 2 0.00030714 0 2 0.00030714
0.1 2 0.000361044 0 2 0.000361044 0.1 2 0.000415755 0
2 0.000415755 0.1 2 0.000471284 0 2 0.000471284 0.1 2
0.000527645 0 2 0.000527645 0.1 2 0.000584849 0 2 0.000584849
0.1 2 0.000642909 0 2 0.000642909 0.1 2 0.000701838 0
2 0.000701838 0.1 2 0.000761648 0 2 0.000761648 0.1 2
0.000822354 0 2 0.000822354 0.1 2 0.000883968 0 2 0.000883968
0.1 2 0.000946504 0 2 0.000946504 0.1 2 0.00100998 0
2 0.00100998 0.1 2 0.0010744 0 2 0.0010744 0.1 2
0.00113978 0 2 0.00113978 0.1 2 0.00120615 0 2 0.00120615
0.1 2 0.00127351 0 2 0.00127351 0.1 2 0.00134187 0
2 0.00134187 0.1 2 0.00141126 0 2 0.00141126 0.1 2
0.00148169 0 2 0.00148169 0.1 2 0.00155317 0 2 0.00155317
0.1 2 0.00162572 0 2 0.00162572 0.1 2 0.00169935 0
2 0.00169935 0.1 2 0.00177409 0 2 0.00177409 0.1 2
0.00184995 0 2 0.00184995 0.1 2 0.00192694 0 2 0.00192694
0.1 2 0.00200508 0 2 0.00200508 0.1 2 0.0020844 0
2 0.0020844 0.1 2 0.0021649 0 2 0.0021649 0.1 2
0.0022466 0 2 0.0022466 0.1 2 0.00232953 0 2 0.00232953
0.1 2 0.0024137 0 2 0.0024137 0.1 2 0.00249912 0
2 0.00249912 0.1 2 0.00258583 0 2 0.00258583 0.1 2
0.00267383 0 2 0.00267383 0.1 2 0.00276315 0 2 0.00276315
0.1 2 0.00285381 0 2 0.00285381 0.1 2 0.00294582 0
2 0.00294582 0.1 2 0.00303921 0 2 0.00303921 0.1 2
0.003134 0 2 0.003134 0.1 2 0.00323021 0 2 0.00323021
0.1 2 0.00332786 0 2 0.00332786 0.1 2 0.00342696 0
2 0.00342696 0.1 2 0.00352755 0 2 0.00352755 0.1 2
0.00362965 0 2 0.00362965 0.1 2 0.00373327 0 2 0.00373327
0.1 2 0.00383845 0 2 0.00383845 0.1 2 0.0039452 0
2 0.0039452 0.1 2 0.00405354 0 2 0.00405354 0.1 2
0.00416351 0 2 0.00416351 0.1 2 0.00427512 0 2 0.00427512
0.1 2 0.00438841 0 2 0.00438841 0.1 2 0.00450338 0
2 0.00450338 0.1 2 0.00462008 0 2 0.00462008 0.1 2
0.00473853 0 2 0.00473853 0.1 2 0.00485875 0 2 0.00485875
0.1 2 0.00498076 0 2 0.00498076 0.1 2 0.0051046 0
2 0.0051046 0.1 2 0.0052303 0 2 0.0052303 0.1 2
0.00535788 0 2 0.00535788 0.1 2 0.00548736 0 2 0.00548736
0.1 2 0.00561879 0 2 0.00561879 0.1 2 0.00575218 0
2 0.00575218 0.1 2 0.00588756 0 2 0.00588756 0.1 2
0.00602497 0 2 0.00602497 0.1 2 0.00616444 0 2 0.00616444
0.1 2 0.006306 0 2 0.006306 0.1 2 0.00644967 0
2 0.00644967 0.1 2 0.0065955 0 2 0.0065955 0.1 2
0.0067435 0 2 0.0067435 0.1 2 0.00689372 0 2 0.00689372
0.1 2 0.00704619 0 2 0.00704619 0.1 2 0.00720094 0
2 0.00720094 0.1 2 0.00735801 0 2 0.00735801 0.1 2
0.00751743 0 2 0.00751743 0.1 2 0.00767923 0 2 0.00767923
0.1 2 0.00784345 0 2 0.00784345 0.1 2 0.00801013 0
2 0.00801013 0.1 2 0.00817931 0 2 0.00817931 0.1 2
0.00835101 0 2 0.00835101 0.1 2 0.00852529 0 2 0.00852529
0.1 2 0.00870218 0 2 0.00870218 0.1 2 0.00888171 0
2 0.00888171 0.1 2 0.00906393 0 2 0.00906393 0.1 2
0.00924887 0 2 0.00924887 0.1 2 0.00943658 0 2 0.00943658
0.1 2 0.0096271 0 2 0.0096271 0.1 2 0.00982048 0
2 0.00982048 0.1 2 0.0100167 0 2 0.0100167 0.1 2
0.0102159 0 2 0.0102159 0.1 2 0.0104181 0 2 0.0104181
0.1 2 0.0106233 0 2 0.0106233 0.1 2 0.0108316 0
2 0.0108316 0.1 2 0.011043 0 2 0.011043 0.1 2
0.0112576 0 2 0.0112576 0.1 2 0.0114754 0 2 0.0114754
0.1 2 0.0116964 0 2 0.0116964 0.1 2 0.0119207 0
2 0.0119207 0.1 2 0.0121484 0 2 0.0121484 0.1 2
0.0123795 0 2 0.0123795 0.1 2 0.0126141 0 2 0.0126141
0.1 2 0.0128521 0 2 0.0128521 0.1 2 0.0130938 0
2 0.0130938 0.1 2 0.013339 0 2 0.013339 0.1 2
0.013588 0 2 0.013588 0.1 2 0.0138406 0 2 0.0138406
0.1 2 0.014097 0 2 0.014097 0.1 2 0.0143573 0
2 0.0143573 0.1 2 0.0146214 0 2 0.0146214 0.1 2
0.0148896 0 2 0.0148896 0.1 2 0.0151617 0 2 0.0151617
0.1 2 0.0154379 0 2 0.0154379 0.1 2 0.0157182 0
2 0.0157182 0.1 2 0.0160027 0 2 0.0160027 0.1 2
0.0162915 0 2 0.0162915 0.1 2 0.0165846 0 2 0.0165846
0.1 2 0.0168821 0 2 0.0168821 0.1 2 0.017184 0
2 0.017184 0.1 2 0.0174905 0 2 0.0174905 0.1 2
0.0178015 0 2 0.0178015 0.1 2 0.0181172 0 2 0.0181172
0.1 2 0.0184376 0 2 0.0184376 0.1 2 0.0187629 0
2 0.0187629 0.1 2 0.0190929 0 2 0.0190929 0.1 2
0.019428 0 2 0.019428 0.1 2 0.019768 0 2 0.019768
0.1 2 0.0201131 0 2 0.0201131 0.1 2 0.0204634 0
2 0.0204634 0.1 2 0.020819 0 2 0.020819 0.1 2
0.0211798 0 2 0.0211798 0.1 2 0.0215461 0 2 0.0215461
0.1 2 0.0219178 0 2 0.0219178 0.1 2 0.0222951 0
2 0.0222951 0.1 2 0.022678 0 2 0.022678 0.1 2
0.0230667 0 2 0.0230667 0.1 2 0.0234612 0 2 0.0234612
0.1 2 0.0238616 0 2 0.0238616 0.1 2 0.024268 0
2 0.024268 0.1 2 0.0246804 0 2 0.0246804 0.1 2
0.0250991 0 2 0.0250991 0.1 2 0.025524 0 2 0.025524
0.1 2 0.0259552 0 2 0.0259552 0.1 2 0.026393 0
2 0.026393 0.1 2 0.0268372 0 2 0.0268372 0.1 2
0.0272881 0 2 0.0272881 0.1 2 0.0277458 0 2 0.0277458
0.1 2 0.0282103 0 2 0.0282103 0.1 2 0.0286818 0
2 0.0286818 0.1 2 0.0291603 0 2 0.0291603 0.1 2
0.0296459 0 2 0.0296459 0.1 2 0.0301389 0 2 0.0301389
0.1 2 0.0306392 0 2 0.0306392 0.1 2 0.031147 0
2 0.031147 0.1 2 0.0316624 0 2 0.0316624 0.1 2
0.0321855 0 2 0.0321855 0.1 2 0.0327165 0 2 0.0327165
0.1 2 0.0332554 0 2 0.0332554 0.1 2 0.0338023 0
2 0.0338023 0.1 2 0.0343575 0 2 0.0343575 0.1 2
0.0349209 0 2 0.0349209 0.1 2 0.0354928 0 2 0.0354928
0.1 2 0.0360733 0 2 0.0360733 0.1 2 0.0366624 0
2 0.0366624 0.1 2 0.0372603 0 2 0.0372603 0.1 2
0.0378672 0 2 0.0378672 0.1 2 0.0384832 0 2 0.0384832
0.1 2 0.0391084 0 2 0.0391084 0.1 2 0.0397429 0
2 0.0397429 0.1 2 0.040387 0 2 0.040387 0.1 2
0.0410406 0 2 0.0410406 0.1 2 0.0417041 0 2 0.0417041
0.1 2 0.0423775 0 2 0.0423775 0.1 2 0.0430609 0
2 0.0430609 0.1 2 0.0437546 0 2 0.0437546 0.1 2
0.0444587 0 2 0.0444587 0.1 2 0.0451733 0 2 0.0451733
0.1 2 0.0458986 0 2 0.0458986 0.1 2 0.0466348 0
2 0.0466348 0.1 2 0.0473819 0 2 0.0473819 0.1 2
0.0481403 0 2 0.0481403 0.1 2 0.04891 0 2 0.04891
0.1 2 0.0496912 0 2 0.0496912 0.1 2 0.0504841 0
2 0.0504841 0.1 2 0.0512889 0 2 0.0512889 0.1 2
0.0521057 0 2 0.0521057 0.1 2 0.0529348 0 2 0.0529348
0.1 2 0.0537762 0 2 0.0537762 0.1 2 0.0546303 0
2 0.0546303 0.1 2 0.0554971 0 2 0.0554971 0.1 2
0.0563769 0 2 0.0563769 0.1 2 0.0572698 0 2 0.0572698
0.1 2 0.0581761 0 2 0.0581761 0.1 2 0.059096 0
2 0.059096 0.1 2 0.0600297 0 2 0.0600297 0.1 2
0.0609773 0 2 0.0609773 0.1 2 0.0619391 0 2 0.0619391
0.1 2 0.0629153 0 2 0.0629153 0.1 2 0.0639061 0
2 0.0639061 0.1 2 0.0649117 0 2 0.0649117 0.1 2
0.0659324 0 2 0.0659324 0.1 2 0.0669684 0 2 0.0669684
0.1 2 0.0680198 0 2 0.0680198 0.1 2 0.069087 0
2 0.069087 0.1 2 0.0701701 0 2 0.0701701 0.1 2
0.0712695 0 2 0.0712695 0.1 2 0.0723853 0 2 0.0723853
0.1 2 0.0735179 0 2 0.0735179 0.1 2 0.0746673 0
2 0.0746673 0.1 2 0.075834 0 2 0.075834 0.1 2
0.0770181 0 2 0.0770181 0.1 2 0.0782199 0 2 0.0782199
0.1 2 0.0794398 0 2 0.0794398 0.1 2 0.0806779 0
2 0.0806779 0.1 2 0.0819345 0 2 0.0819345 0.1 2
0.0832099 0 2 0.0832099 0.1 2 0.0845044 0 2 0.0845044
0.1 2 0.0858182 0 2 0.0858182 0.1 2 0.0871518 0
2 0.0871518 0.1 2 0.0885053 0 2 0.0885053 0.1 2
0.089879 0 2 0.089879 0.1 2 0.0912733 0 2 0.0912733
0.1 2 0.0926885 0 2 0.0926885 0.1 2 0.0941248 0
2 0.0941248 0.1 2 0.0955826 0 2 0.0955826 0.1 2
0.0970623 0 2 0.0970623 0.1 2 0.0985641 0 2 0.0985641
0.1 2 0.100088 0 2 0.100088 0.1 2 0.101635 0
2 0.101635 0.1 2 0.103206 0 2 0.103206 0.1 2
0.104799 0 2 0.104799 0.1 2 0.106417 0 2 0.106417
0.1 2 0.108059 0 2 0.108059 0.1 2 0.109725 0
2 0.109725 0.1 2 0.111416 0 2 0.111416 0.1 2
0.113133 0 2 0.113133 0.1 2 0.114875 0 2 0.114875
0.1 2 0.116644 0 2 0.116644 0.1 2 0.118438 0
2 0.118438 0.1 2 0.12026 0 2 0.12026 0.1 2
0.122109 0 2 0.122109 0.1 2 0.123986 0 2 0.123986
0.1 2 0.12589 0 2 0.12589 0.1 2 0.127824 0
2 0.127824 0.1 2 0.129786 0 2 0.129786 0.1 2
0.131777 0 2 0.131777 0.1 2 0.133798 0 2 0.133798
0.1 2 0.13585 0 2 0.13585 0.1 2 0.137932 0
2 0.137932 0.1 2 0.140046 0 2 0.140046 0.1 2
0.142191 0 2 0.142191 0.1 2 0.144368 0 2 0.144368
0.1 2 0.146577 0 2 0.146577 0.1 2 0.14882 0
2 0.14882 0.1 2 0.151096 0 2 0.151096 0.1 2
0.153407 0 2 0.153407 0.1 2 0.155752 0 2 0.155752
0.1 2 0.158132 0 2 0.158132 0.1 2 0.160547 0
2 0.160547 0.1 2 0.162999 0 2 0.162999 0.1 2
0.165488 0 2 0.165488 0.1 2 0.168014 0 2 0.168014
0.1 2 0.170577 0 2 0.170577 0.1 2 0.173179 0
2 0.173179 0.1 2 0.17582 0 2 0.17582 0.1 2
0.1785 0 2 0.1785 0.1 2 0.181221 0 2 0.181221
0.1 2 0.183982 0 2 0.183982 0.1 2 0.186784 0
2 0.186784 0.1 2 0.189629 0 2 0.189629 0.1 2
0.192516 0 2 0.192516 0.1 2 0.195446 0 2 0.195446
0.1 2 0.19842 0 2 0.19842 0.1 2 0.201439 0
2 0.201439 0.1 2 0.204502 0 2 0.204502 0.1 2
0.207612 0 2 0.207612 0.1 2 0.210768 0 2 0.210768
0.1 2 0.213971 0 2 0.213971 0.1 2 0.217223 0
2 0.217223 0.1 2 0.220523 0 2 0.220523 0.1 2
0.223872 0 2 0.223872 0.1 2 0.227271 0 2 0.227271
0.1 2 0.230722 0 2 0.230722 0.1 2 0.234224 0
2 0.234224 0.1 2 0.237778 0 2 0.237778 0.1 2
0.241385 0 2 0.241385 0.1 2 0.245047 0 2 0.245047
0.1 2 0.248763 0 2 0.248763 0.1 2 0.252535 0
2 0.252535 0.1 2 0.256363 0 2 0.256363 0.1 2
0.260249 0 2 0.260249 0.1 2 0.264193 0 2 0.264193
0.1 2 0.268196 0 2 0.268196 0.1 2 0.272258 0
2 0.272258 0.1 2 0.276382 0 2 0.276382 0.1 2
0.280567 0 2 0.280567 0.1 2 0.284815 0 2 0.284815
0.1 2 0.289126 0 2 0.289126 0.1 2 0.293502 0
2 0.293502 0.1 2 0.297944 0 2 0.297944 0.1 2
0.302452 0 2 0.302452 0.1 2 0.307027 0 2 0.307027
0.1 2 0.311671 0 2 0.311671 0.1 2 0.316384 0
2 0.316384 0.1 2 0.321168 0 2 0.321168 0.1 2
0.326023 0 2 0.326023 0.1 2 0.330951 0 2 0.330951
0.1 2 0.335953 0 2 0.335953 0.1 2 0.34103 0
2 0.34103 0.1 2 0.346183 0 2 0.346183 0.1 2
0.351412 0 2 0.351412 0.1 2 0.35672 0 2 0.35672
0.1 2 0.362108 0 2 0.362108 0.1 2 0.367576 0
2 0.367576 0.1 2 0.373126 0 2 0.373126 0.1 2
0.378759 0 2 0.378759 0.1 2 0.384476 0 2 0.384476
0.1 2 0.390279 0 2 0.390279 0.1 2 0.396168 0
2 0.396168 0.1 2 0.402146 0 2 0.402146 0.1 2
0.408213 0 2 0.408213 0.1 2 0.414371 0 2 0.414371
0.1 2 0.420621 0 2 0.420621 0.1 2 0.426965 0
2 0.426965 0.1 2 0.433404 0 2 0.433404 0.1 2
0.439939 0 2 0.439939 0.1 2 0.446571 0 2 0.446571
0.1 2 0.453303 0 2 0.453303 0.1 2 0.460136 0
2 0.460136 0.1 2 0.467071 0 2 0.467071 0.1 2
0.47411 0 2 0.47411 0.1 2 0.481254 0 2 0.481254
0.1 2 0.488505 0 2 0.488505 0.1 2 0.495864 0
2 0.495864 0.1 2 0.503334 0 2 0.503334 0.1 2
0.510916 0 2 0.510916 0.1 2 0.51861 0 2 0.51861
0.1 2 0.52642 0 2 0.52642 0.1 2 0.534347 0
2 0.534347 0.1 2 0.542393 0 2 0.542393 0.1 2
0.550559 0 2 0.550559 0.1 2 0.558847 0 2 0.558847
0.1 2 0.567259 0 2 0.567259 0.1 2 0.575797 0
2 0.575797 0.1 2 0.584463 0 2 0.584463 0.1 2
0.593258 0 2 0.593258 0.1 2 0.602186 0 2 0.602186
0.1 2 0.611246 0 2 0.611246 0.1 2 0.620443 0
2 0.620443 0.1 2 0.629776 0 2 0.629776 0.1 2
0.63925 0 2 0.63925 0.1 2 0.648865 0 2 0.648865
0.1 2 0.658625 0 2 0.658625 0.1 2 0.66853 0
2 0.66853 0.1 2 0.678583 0 2 0.678583 0.1 2
0.688787 0 2 0.688787 0.1 2 0.699144 0 2 0.699144
0.1 2 0.709656 0 2 0.709656 0.1 2 0.720324 0
2 0.720324 0.1 2 0.731153 0 2 0.731153 0.1 2
0.742144 0 2 0.742144 0.1 2 0.753299 0 2 0.753299
0.1 2 0.764621 0 2 0.764621 0.1 2 0.776112 0
2 0.776112 0.1 2 0.787776 0 2 0.787776 0.1 2
0.799614 0 2 0.799614 0.1 2 0.811629 0 2 0.811629
0.1 2 0.823824 0 2 0.823824 0.1 2 0.836201 0
2 0.836201 0.1 2 0.848764 0 2 0.848764 0.1 2
0.861514 0 2 0.861514 0.1 2 0.874456 0 2 0.874456
0.1 2 0.887591 0 2 0.887591 0.1 2 0.900922 0
2 0.900922 0.1 2 0.914453 0 2 0.914453 0.1 2
0.928187 0 2 0.928187 0.1 2 0.942126 0 2 0.942126
0.1 2 0.956274 0 2 0.956274 0.1 2 0.970633 0
2 0.970633 0.1 2 0.985208 0 2 0.985208 0.1 2
1 0 2 1 0.1 
POLYGONS 385 1925
4 0 1 2 3 4 1 4 5 2 4
4 6 7 5 4 6 8 9 7 4
8 10 11 9 4 10 12 13 11 4
12 14 15 13 4 14 16 17 15 4
16 18 19 17 4 18 20 21 19 4
20 22 23 21 4 22 24 25 23 4
24 26 27 25 4 26 28 29 27 4
28 30 31 29 4 30 32 33 31 4
32 34 35 33 4 34 36 37 35 4
36 38 39 37 4 38 40 41 39 4
40 42 43 41 4 42 44 45 43 4
44 46 47 45 4 46 48 49 47 4
48 50 51 49 4 50 52 53 51 4
52 54 55 53 4 54 56 57 55 4
56 58 59 57 4 58 60 61 59 4
60 62 63 61 4 62 64 65 63 4
64 66 67 65 4 66 68 69 67 4
68 70 71 69 4 70 72 73 71 4
72 74 75 73 4 74 76 77 75 4
76 78 79 77 4 78 80 81 79 4
80 82 83 81 4 82 84 85 83 4
84 86 87 85 4 86 88 89 87 4
88 90 91 89 4 90 92 93 91 4
92 94 95 93 4 94 96 97 95 4
96 98 99 97 4 98 100 101 99 4
100 102 103 101 4 102 104 105 103 4
104 106 107 105 4 106 108 109 107 4
108 110 111 109 4 110 112 113 111 4
112 114 115 113 4 114 116 117 115 4
116 118 119 117 4 118 120 121 119 4
120 122 123 121 4 122 124 125 123 4
124 126 127 125 4 126 128 129 127 4
128 130 131 129 4 130 132 133 131 4
132 134 135 133 4 134 136 137 135 4
136 138 139 137 4 138 140 141 139 4
140 142 143 141 4 142 144 145 143 4
144 146 147 145 4 146 148 149 147 4
148 150 151 149 4 150 152 153 151 4
152 154 155 153 4 154 156 157 155 4
156 158 159 157 4 158 160 161 159 4
160 162 163 161 4 162 164 165 163 4
164 166 167 165 4 166 168 169 167 4
168 170 171 169 4 170 172 173 171 4
172 174 175 173 4 174 176 177 175 4
176 178 179 177 4 178 180 181 179 4
180 182 183 181 4 182 184 185 183 4
184 186 187 185 4 186 188 189 187 4
188 190 191 189 4 190 192 193 191 4
192 194 195 193 4 194 196 197 195 4
196 198 199 197 4 198 200 201 199 4
200 202 203 201 4 202 204 205 203 4
204 206 207 205 4 206 208 209 207 4
208 210 211 209 4 210 212 213 211 4
212 214 215 213 4 214 216 217 215 4
216 218 219 217 4 218 220 221 219 4
220 222 223 221 4 222 224 225 223 4
224 226 227 225 4 226 228 229 227 4
228 230 231 229 4 230 232 233 231 4
232 234 235 233 4 234 236 237 235 4
236 238 239 237 4 238 240 241 239 4
240 242 243 241 4 242 244 245 243 4
244 246 247 245 4 246 248 249 247 4
248 250 251 249 4 250 252 253 251 4
252 254 255 253 4 254 256 257 255 4
256 258 259 257 4 258 260 261 259 4
260 262 263 261 4 262 264 265 263 4
264 266 267 265 4 266 268 269 267 4
268 270 271 269 4 270 272 273 271 4
272 274 275 273 4 274 276 277 275 4
276 278 279 277 4 278 280 281 279 4
280 282 283 281 4 282 284 285 283 4
284 286 287 285 4 286 288 289 287 4
288 290 291 289 4 290 292 293 291 4
292 294 295 293 4 294 296 297 295 4
296 298 299 297 4 298 300 301 299 4
300 302 303 301 4 302 304 305 303 4
304 306 307 305 4 306 308 309 307 4
308 310 311 309 4 310 312 313 311 4
312 314 315 313 4 314 316 317 315 4
316 318 319 317 4 318 320 321 319 4
320 322 323 321 4 322 324 325 323 4
324 326 327 325 4 326 328 329 327 4
328 330 331 329 4 330 332 333 331 4
332 334 335 333 4 334 336 337 335 4
336 338 339 337 4 338 340 341 339 4
340 342 343 341 4 342 344 345 343 4
344 346 347 345 4 346 348 349 347 4
348 350 351 349 4 350 352 353 351 4
352 354 355 353 4 354 356 357 355 4
356 358 359 357 4 358 360 361 359 4
360 362 363 361 4 362 364 365 363 4
364 366 367 365 4 366 368 369 367 4
368 370 371 369 4 370 372 373 371 4
372 374 375 373 4 374 376 377 375 4
376 378 379 377 4 378 380 381 379 4
380 382 383 381 4 382 384 385 383 4
384 386 387 385 4 386 388 389 387 4
388 390 391 389 4 390 392 393 391 4
392 394 395 393 4 394 396 397 395 4
396 398 399 397 4 398 400 401 399 4
400 402 403 401 4 402 404 405 403 4
404 406 407 405 4 406 408 409 407 4
408 410 411 409 4 410 412 413 411 4
412 414 415 413 4 414 416 417 415 4
416 418 419 417 4 418 420 421 419 4
420 422 423 421 4 422 424 425 423 4
424 426 427 425 4 426 428 429 427 4
428 430 431 429 4 430 432 433 431 4
432 434 435 433 4 434 436 437 435 4
436 438 439 437 4 438 440 441 439 4
440 442 443 441 4 442 444 445 443 4
444 446 447 445 4 446 448 449 447 4
448 450 451 449 4 450 452 453 451 4
452 454 455 453 4 454 456 457 455 4
456 458 459 457 4 458 460 461 459 4
460 462 463 461 4 462 464 465 463 4
464 466 467 465 4 466 468 469 467 4
468 470 471 469 4 470 472 473 471 4
472 474 475 473 4 474 476 477 475 4
476 478 479 477 4 478 480 481 479 4
480 482 483 481 4 482 484 485 483 4
484 486 487 485 4 486 488 489 487 4
488 490 491 489 4 490 492 493 491 4
492 494 495 493 4 494 496 497 495 4
496 498 499 497 4 498 500 501 499 4
500 502 503 501 4 502 504 505 503 4
504 506 507 505 4 506 508 509 507 4
508 510 511 509 4 510 512 513 511 4
512 514 515 513 4 514 516 517 515 4
516 518 519 517 4 518 520 521 519 4
520 522 523 521 4 522 524 525 523 4
524 526 527 525 4 526 528 529 527 4
528 530 531 529 4 530 532 533 531 4
532 534 535 533 4 534 536 537 535 4
536 538 539 537 4 538 540 541 539 4
540 542 543 541 4 542 544 545 543 4
544 546 547 545 4 546 548 549 547 4
548 550 551 549 4 550 552 553 551 4
552 554 555 553 4 554 556 557 555 4
556 558 559 557 4 558 560 561 559 4
560 562 563 561 4 562 564 565 563 4
564 566 567 565 4 566 568 569 567 4
568 570 571 569 4 570 572 573 571 4
572 574 575 573 4 574 576 577 575 4
576 578 579 577 4 578 580 581 579 4
580 582 583 581 4 582 584 585 583 4
584 586 587 585 4 586 588 589 587 4
588 590 591 589 4 590 592 593 591 4
592 594 595 593 4 594 596 597 595 4
596 598 599 597 4 598 600 601 599 4
600 602 603 601 4 602 604 605 603 4
604 606 607 605 4 606 608 609 607 4
608 610 611 609 4 610 612 613 611 4
612 614 615 613 4 614 616 617 615 4
616 618 619 617 4 618 620 621 619 4
620 622 623 621 4 622 624 625 623 4
624 626 627 625 4 626 628 629 627 4
628 630 631 629 4 630 632 633 631 4
632 634 635 633 4 634 636 637 635 4
636 638 639 637 4 638 640 641 639 4
640 642 643 641 4 642 644 645 643 4
644 646 647 645 4 646 648 649 647 4
648 650 651 649 4 650 652 653 651 4
652 654 655 653 4 654 656 657 655 4
656 658 659 657 4 658 660 661 659 4
660 662 663 661 4 662 664 665 663 4
664 666 667 665 4 666 668 669 667 4
668 670 671 669 4 670 672 673 671 4
672 674 675 673 4 674 676 677 675 4
676 678 679 677 4 678 680 681 679 4
680 682 683 681 4 682 684 685 683 4
684 686 687 685 4 686 688 689 687 4
688 690 691 689 4 690 692 693 691 4
692 694 695 693 4 694 696 697 695 4
696 698 699 697 4 698 700 701 699 4
700 702 703 701 4 702 704 705 703 4
704 706 707 705 4 706 708 709 707 4
708 710 711 709 4 710 712 713 711 4
712 714 715 713 4 714 716 717 715 4
716 718 719 717 4 718 720 721 719 4
720 722 723 721 4 722 724 725 723 4
724 726 727 725 4 726 728 729 727 4
728 730 731 729 4 730 732 733 731 4
732 734 735 733 4 734 736 737 735 4
736 738 739 737 4 738 740 741 739 4
740 742 743 741 4 742 744 745 743 4
744 746 747 745 4 746 748 749 747 4
748 750 751 749 4 750 752 753 751 4
752 754 755 753 4 754 756 757 755 4
756 758 759 757 4 758 760 761 759 4
760 762 763 761 4 762 764 765 763 4
764 766 767 765 4 766 768 769 767 4
768 770 771 769 
CELL_DATA 385
FIELD attributes 12
patchID 1 385 float
1 1 1 1 1 1 1 1 1 1 1
1 1 1 1 1 1 1 1 1 1
1 1 1 1 1 1 1 1 1 1
1 1 1 1 1 1 1 1 1 1
1 1 1 1 1 1 1 1 1 1
1 1 1 1 1 1 1 1 1 1
1 1 1 1 1 1 1 1 1 1
1 1 1 1 1 1 1 1 1 1
1 1 1 1 1 1 1 1 1 1
1 1 1 1 1 1 1 1 1 1
1 1 1 1 1 1 1 1 1 1
1 1 1 1 1 1 1 1 1 1
1 1 1 1 1 1 1 1 1 1
1 1 1 1 1 1 1 1 1 1
1 1 1 1 1 1 1 1 1 1
1 1 1 1 1 1 1 1 1 1
1 1 1 1 1 1 1 1 1 1
1 1 1 1 1 1 1 1 1 1
1 1 1 1 1 1 1 1 1 1
1 1 1 1 1 1 1 1 1 1
1 1 1 1 1 1 1 1 1 1
1 1 1 1 1 1 1 1 1 1
1 1 1 1 1 1 1 1 1 1
1 1 1 1 1 1 1 1 1 1
1 1 1 1 1 1 1 1 1 1
1 1 1 1 1 1 1 1 1 1
1 1 1 1 1 1 1 1 1 1
1 1 1 1 1 1 1 1 1 1
1 1 1 1 1 1 1 1 1 1
1 1 1 1 1 1 1 1 1 1
1 1 1 1 1 1 1 1 1 1
1 1 1 1 1 1 1 1 1 1
1 1 1 1 1 1 1 1 1 1
1 1 1 1 1 1 1 1 1 1
1 1 1 1 1 1 1 1 1 1
1 1 1 1 1 1 1 1 1 1
1 1 1 1 1 1 1 1 1 1
1 1 1 1 1 1 1 1 1 1
1 1 1 1 
Cy 1 385 float
2.4654e-05 7.4331e-05 0.000124751 0.000175926 0.000227867 0.000280585 0.000334092 0.000388399 0.000443519 0.000499465 0.000556247
0.000613879 0.000672373 0.000731743 0.000792001 0.000853161 0.000915236 0.00097824 0.00104219 0.00110709 0.00117297
0.00123983 0.00130769 0.00137656 0.00144647 0.00151743 0.00158944 0.00166254 0.00173672 0.00181202 0.00188844
0.00196601 0.00204474 0.00212465 0.00220575 0.00228806 0.00237161 0.00245641 0.00254248 0.00262983 0.00271849
0.00280848 0.00289982 0.00299252 0.00308661 0.00318211 0.00327903 0.00337741 0.00347726 0.0035786 0.00368146
0.00378586 0.00389182 0.00399937 0.00410853 0.00421932 0.00433176 0.00444589 0.00456173 0.00467931 0.00479864
0.00491975 0.00504268 0.00516745 0.00529409 0.00542262 0.00555307 0.00568548 0.00581987 0.00595627 0.00609471
0.00623522 0.00637784 0.00652258 0.0066695 0.00681861 0.00696996 0.00712357 0.00727948 0.00743772 0.00759833
0.00776134 0.00792679 0.00809472 0.00826516 0.00843815 0.00861373 0.00879194 0.00897282 0.0091564 0.00934273
0.00953184 0.00972379 0.00991861 0.0101163 0.010317 0.0105207 0.0107275 0.0109373 0.0111503 0.0113665
0.0115859 0.0118085 0.0120346 0.012264 0.0124968 0.0127331 0.012973 0.0132164 0.0134635 0.0137143
0.0139688 0.0142272 0.0144894 0.0147555 0.0150256 0.0152998 0.015578 0.0158605 0.0161471 0.016438
0.0167333 0.0170331 0.0173373 0.017646 0.0179594 0.0182774 0.0186003 0.0189279 0.0192605 0.019598
0.0199406 0.0202883 0.0206412 0.0209994 0.0213629 0.0217319 0.0221064 0.0224866 0.0228724 0.023264
0.0236614 0.0240648 0.0244742 0.0248898 0.0253115 0.0257396 0.0261741 0.0266151 0.0270627 0.027517
0.027978 0.028446 0.028921 0.0294031 0.0298924 0.0303891 0.0308931 0.0314047 0.031924 0.032451
0.0329859 0.0335289 0.0340799 0.0346392 0.0352069 0.035783 0.0363678 0.0369614 0.0375638 0.0381752
0.0387958 0.0394256 0.0400649 0.0407138 0.0413724 0.0420408 0.0427192 0.0434078 0.0441067 0.044816
0.045536 0.0462667 0.0470084 0.0477611 0.0485251 0.0493006 0.0500877 0.0508865 0.0516973 0.0525202
0.0533555 0.0542032 0.0550637 0.055937 0.0568233 0.057723 0.0586361 0.0595629 0.0605035 0.0614582
0.0624272 0.0634107 0.0644089 0.0654221 0.0664504 0.0674941 0.0685534 0.0696286 0.0707198 0.0718274
0.0729516 0.0740926 0.0752506 0.076426 0.077619 0.0788299 0.0800588 0.0813062 0.0825722 0.0838571
0.0851613 0.086485 0.0878285 0.0891921 0.0905761 0.0919809 0.0934066 0.0948537 0.0963225 0.0978132
0.0993262 0.100862 0.102421 0.104003 0.105608 0.107238 0.108892 0.110571 0.112275 0.114004
0.115759 0.117541 0.119349 0.121185 0.123047 0.124938 0.126857 0.128805 0.130781 0.132788
0.134824 0.136891 0.138989 0.141118 0.143279 0.145473 0.147699 0.149958 0.152252 0.154579
0.156942 0.15934 0.161773 0.164244 0.166751 0.169295 0.171878 0.174499 0.17716 0.17986
0.182601 0.185383 0.188207 0.191072 0.193981 0.196933 0.199929 0.20297 0.206057 0.20919
0.21237 0.215597 0.218873 0.222197 0.225572 0.228996 0.232473 0.236001 0.239582 0.243216
0.246905 0.250649 0.254449 0.258306 0.262221 0.266194 0.270227 0.27432 0.278475 0.282691
0.286971 0.291314 0.295723 0.300198 0.304739 0.309349 0.314027 0.318776 0.323596 0.328487
0.333452 0.338492 0.343606 0.348797 0.354066 0.359414 0.364842 0.370351 0.375942 0.381617
0.387377 0.393223 0.399157 0.40518 0.411292 0.417496 0.423793 0.430184 0.436671 0.443255
0.449937 0.45672 0.463604 0.47059 0.477682 0.484879 0.492185 0.499599 0.507125 0.514763
0.522515 0.530384 0.53837 0.546476 0.554703 0.563053 0.571528 0.58013 0.588861 0.597722
0.606716 0.615844 0.625109 0.634513 0.644058 0.653745 0.663577 0.673557 0.683685 0.693966
0.7044 0.71499 0.725739 0.736648 0.747721 0.75896 0.770366 0.781944 0.793695 0.805621
0.817726 0.830012 0.842482 0.855139 0.867985 0.881023 0.894256 0.907688 0.92132 0.935157
0.9492 0.963454 0.97792 0.992604 
nut 1 385 float
3.67046e-07 2.24287e-05 5.82788e-05 9.98223e-05 0.000144544 0.000191443 0.000239938 0.00028971 0.000340567 0.000392387 0.000445088
0.000498613 0.000552918 0.000607971 0.000663748 0.000720227 0.000777392 0.000835227 0.00089372 0.000952858 0.00101263
0.00107303 0.00113404 0.00119565 0.00125786 0.00132066 0.00138402 0.00144795 0.00151243 0.00157746 0.00164301
0.00170908 0.00177566 0.00184272 0.00191027 0.00197827 0.00204673 0.00211561 0.00218491 0.0022546 0.00232467
0.0023951 0.00246585 0.00253692 0.00260828 0.00267991 0.00275177 0.00282384 0.0028961 0.00296851 0.00304104
0.00311366 0.00318634 0.00325904 0.00333173 0.00340436 0.0034769 0.0035493 0.00362152 0.00369353 0.00376526
0.00383667 0.00390771 0.00397834 0.00404848 0.0041181 0.00418713 0.0042555 0.00432316 0.00439005 0.00445609
0.00452122 0.00458536 0.00464845 0.0047104 0.00477114 0.00483059 0.00488867 0.00494529 0.00500037 0.00505381
0.00510553 0.00515543 0.00520341 0.00524938 0.00529323 0.00533487 0.00537418 0.00541107 0.00544542 0.00547713
0.00550607 0.00552463 0.00553338 0.00553431 0.00552971 0.00552127 0.00551014 0.00549695 0.00548196 0.00546514
0.00544624 0.00542487 0.00540059 0.00537286 0.00534117 0.00530497 0.00526375 0.00521701 0.0051643 0.00510518
0.00503929 0.00496633 0.00488606 0.00479836 0.0047032 0.0046007 0.00449114 0.00437499 0.00425299 0.00412618
0.00399598 0.00386432 0.00373375 0.00360751 0.00348963 0.00338482 0.00329813 0.00323415 0.00319526 0.00317847
0.00316867 0.00311628 0.0029571 0.00279007 0.00261462 0.00243052 0.00223748 0.00203519 0.0018233 0.00160151
0.00136951 0.00112711 0.000874436 0.000612406 0.000348332 0.000146436 4.03697e-05 4.91474e-06 3.04091e-07 1.02659e-07
9.43345e-08 9.39566e-08 9.41059e-08 9.42099e-08 9.41111e-08 9.39531e-08 9.40378e-08 9.41049e-08 9.42084e-08 9.42157e-08
9.41124e-08 9.42088e-08 9.40561e-08 9.39399e-08 9.4202e-08 9.42136e-08 9.42165e-08 9.42154e-08 9.40545e-08 9.39351e-08
9.40374e-08 9.42085e-08 9.39491e-08 9.42048e-08 9.41116e-08 9.41114e-08 9.4211e-08 9.42172e-08 9.42151e-08 9.4053e-08
9.40415e-08 9.39367e-08 9.41033e-08 9.41097e-08 9.40471e-08 9.40388e-08 9.42108e-08 9.4215e-08 9.4113e-08 9.41098e-08
9.40455e-08 9.40411e-08 9.3935e-08 9.41045e-08 9.41095e-08 9.42133e-08 9.39418e-08 9.42088e-08 9.4046e-08 9.42124e-08
9.42152e-08 9.42166e-08 9.40459e-08 9.41081e-08 9.39399e-08 9.3933e-08 9.40344e-08 9.39331e-08 9.42098e-08 9.42161e-08
9.40447e-08 9.42135e-08 9.39398e-08 9.40348e-08 9.42142e-08 9.4045e-08 9.3933e-08 9.39302e-08 9.42111e-08 9.40433e-08
9.41082e-08 9.42151e-08 9.39365e-08 9.41073e-08 9.39352e-08 9.41075e-08 9.39345e-08 9.41079e-08 9.40414e-08 9.39304e-08
9.41076e-08 9.41101e-08 9.41099e-08 9.3935e-08 9.39292e-08 9.42132e-08 9.4042e-08 9.39298e-08 9.42132e-08 9.42176e-08
9.40406e-08 9.41089e-08 9.42161e-08 9.40404e-08 9.41088e-08 9.39323e-08 9.41084e-08 9.42161e-08 9.41106e-08 9.40382e-08
9.42158e-08 9.41107e-08 9.40387e-08 9.39289e-08 9.42146e-08 9.39327e-08 9.40349e-08 9.41093e-08 9.4216e-08 9.4039e-08
9.4109e-08 9.40377e-08 9.39282e-08 9.40353e-08 9.39284e-08 9.40345e-08 9.39284e-08 9.42154e-08 9.40371e-08 9.3928e-08
9.3928e-08 9.4215e-08 9.39303e-08 9.42154e-08 9.411e-08 9.39292e-08 9.41087e-08 9.42162e-08 9.4217e-08 9.40371e-08
9.42159e-08 9.39289e-08 9.39275e-08 9.39271e-08 9.42151e-08 9.3929e-08 9.42151e-08 9.39285e-08 9.40343e-08 9.40345e-08
9.40345e-08 9.42158e-08 9.41094e-08 9.41088e-08 9.42158e-08 9.4036e-08 9.39265e-08 9.41078e-08 9.40351e-08 9.42152e-08
9.39276e-08 9.41078e-08 9.42154e-08 9.39273e-08 9.42148e-08 9.41085e-08 9.39266e-08 9.39256e-08 9.40332e-08 9.41076e-08
9.40339e-08 9.39255e-08 9.40329e-08 9.39253e-08 9.41071e-08 9.42148e-08 9.41077e-08 9.42146e-08 9.40337e-08 9.42144e-08
9.41075e-08 9.42144e-08 9.40333e-08 9.40326e-08 9.40324e-08 9.41066e-08 9.39248e-08 9.4032e-08 9.41065e-08 9.41066e-08
9.40324e-08 9.41063e-08 9.42139e-08 9.42138e-08 9.39243e-08 9.41058e-08 9.41062e-08 9.4106e-08 9.39237e-08 9.40312e-08
9.42131e-08 9.42134e-08 9.39235e-08 9.42128e-08 9.41056e-08 9.40311e-08 9.42128e-08 9.3923e-08 9.42126e-08 9.41053e-08
9.42126e-08 9.40307e-08 9.39223e-08 9.42123e-08 9.42125e-08 9.42125e-08 9.40304e-08 9.40301e-08 9.41046e-08 9.41046e-08
9.41045e-08 9.39219e-08 9.40297e-08 9.42119e-08 9.40298e-08 9.39215e-08 9.40295e-08 9.41042e-08 9.41042e-08 9.41041e-08
9.39214e-08 9.42116e-08 9.42117e-08 9.40293e-08 9.39211e-08 9.39211e-08 9.3921e-08 9.41039e-08 9.41039e-08 9.40291e-08
9.41038e-08 9.42115e-08 9.42114e-08 9.3988e-08 
Cz 1 385 float
0.05 0.05 0.05 0.05 0.05 0.05 0.05 0.05 0.05 0.05 0.05
0.05 0.05 0.05 0.05 0.05 0.05 0.05 0.05 0.05 0.05
0.05 0.05 0.05 0.05 0.05 0.05 0.05 0.05 0.05 0.05
0.05 0.05 0.05 0.05 0.05 0.05 0.05 0.05 0.05 0.05
0.05 0.05 0.05 0.05 0.05 0.05 0.05 0.05 0.05 0.05
0.05 0.05 0.05 0.05 0.05 0.05 0.05 0.05 0.05 0.05
0.05 0.05 0.05 0.05 0.05 0.05 0.05 0.05 0.05 0.05
0.05 0.05 0.05 0.05 0.05 0.05 0.05 0.05 0.05 0.05
0.05 0.05 0.05 0.05 0.05 0.05 0.05 0.05 0.05 0.05
0.05 0.05 0.05 0.05 0.05 0.05 0.05 0.05 0.05 0.05
0.05 0.05 0.05 0.05 0.05 0.05 0.05 0.05 0.05 0.05
0.05 0.05 0.05 0.05 0.05 0.05 0.05 0.05 0.05 0.05
0.05 0.05 0.05 0.05 0.05 0.05 0.05 0.05 0.05 0.05
0.05 0.05 0.05 0.05 0.05 0.05 0.05 0.05 0.05 0.05
0.05 0.05 0.05 0.05 0.05 0.05 0.05 0.05 0.05 0.05
0.05 0.05 0.05 0.05 0.05 0.05 0.05 0.05 0.05 0.05
0.05 0.05 0.05 0.05 0.05 0.05 0.05 0.05 0.05 0.05
0.05 0.05 0.05 0.05 0.05 0.05 0.05 0.05 0.05 0.05
0.05 0.05 0.05 0.05 0.05 0.05 0.05 0.05 0.05 0.05
0.05 0.05 0.05 0.05 0.05 0.05 0.05 0.05 0.05 0.05
0.05 0.05 0.05 0.05 0.05 0.05 0.05 0.05 0.05 0.05
0.05 0.05 0.05 0.05 0.05 0.05 0.05 0.05 0.05 0.05
0.05 0.05 0.05 0.05 0.05 0.05 0.05 0.05 0.05 0.05
0.05 0.05 0.05 0.05 0.05 0.05 0.05 0.05 0.05 0.05
0.05 0.05 0.05 0.05 0.05 0.05 0.05 0.05 0.05 0.05
0.05 0.05 0.05 0.05 0.05 0.05 0.05 0.05 0.05 0.05
0.05 0.05 0.05 0.05 0.05 0.05 0.05 0.05 0.05 0.05
0.05 0.05 0.05 0.05 0.05 0.05 0.05 0.05 0.05 0.05
0.05 0.05 0.05 0.05 0.05 0.05 0.05 0.05 0.05 0.05
0.05 0.05 0.05 0.05 0.05 0.05 0.05 0.05 0.05 0.05
0.05 0.05 0.05 0.05 0.05 0.05 0.05 0.05 0.05 0.05
0.05 0.05 0.05 0.05 0.05 0.05 0.05 0.05 0.05 0.05
0.05 0.05 0.05 0.05 0.05 0.05 0.05 0.05 0.05 0.05
0.05 0.05 0.05 0.05 0.05 0.05 0.05 0.05 0.05 0.05
0.05 0.05 0.05 0.05 0.05 0.05 0.05 0.05 0.05 0.05
0.05 0.05 0.05 0.05 0.05 0.05 0.05 0.05 0.05 0.05
0.05 0.05 0.05 0.05 0.05 0.05 0.05 0.05 0.05 0.05
0.05 0.05 0.05 0.05 0.05 0.05 0.05 0.05 0.05 0.05
0.05 0.05 0.05 0.05 
p 1 385 float
0 0 0 0 0 0 0 0 0 0 0
0 0 0 0 0 0 0 0 0 0
0 0 0 0 0 0 0 0 0 0
0 0 0 0 0 0 0 0 0 0
0 0 0 0 0 0 0 0 0 0
0 0 0 0 0 0 0 0 0 0
0 0 0 0 0 0 0 0 0 0
0 0 0 0 0 0 0 0 0 0
0 0 0 0 0 0 0 0 0 0
0 0 0 0 0 0 0 0 0 0
0 0 0 0 0 0 0 0 0 0
0 0 0 0 0 0 0 0 0 0
0 0 0 0 0 0 0 0 0 0
0 0 0 0 0 0 0 0 0 0
0 0 0 0 0 0 0 0 0 0
0 0 0 0 0 0 0 0 0 0
0 0 0 0 0 0 0 0 0 0
0 0 0 0 0 0 0 0 0 0
0 0 0 0 0 0 0 0 0 0
0 0 0 0 0 0 0 0 0 0
0 0 0 0 0 0 0 0 0 0
0 0 0 0 0 0 0 0 0 0
0 0 0 0 0 0 0 0 0 0
0 0 0 0 0 0 0 0 0 0
0 0 0 0 0 0 0 0 0 0
0 0 0 0 0 0 0 0 0 0
0 0 0 0 0 0 0 0 0 0
0 0 0 0 0 0 0 0 0 0
0 0 0 0 0 0 0 0 0 0
0 0 0 0 0 0 0 0 0 0
0 0 0 0 0 0 0 0 0 0
0 0 0 0 0 0 0 0 0 0
0 0 0 0 0 0 0 0 0 0
0 0 0 0 0 0 0 0 0 0
0 0 0 0 0 0 0 0 0 0
0 0 0 0 0 0 0 0 0 0
0 0 0 0 0 0 0 0 0 0
0 0 0 0 0 0 0 0 0 0
0 0 0 0 
k 1 385 float
0.672741 12.2403 15.8949 17.1315 17.7034 18.0323 18.2435 18.3888 18.4933 18.5708 18.6292
18.6737 18.7076 18.7333 18.7523 18.7659 18.775 18.7803 18.7822 18.7813 18.7779
18.7721 18.7643 18.7547 18.7432 18.7302 18.7157 18.6998 18.6825 18.664 18.6442
18.6233 18.6012 18.578 18.5537 18.5284 18.502 18.4745 18.4461 18.4166 18.3862
18.3547 18.3222 18.2887 18.2542 18.2187 18.1822 18.1446 18.1061 18.0664 18.0258
17.9841 17.9413 17.8974 17.8524 17.8062 17.759 17.7106 17.661 17.6102 17.5582
17.505 17.4505 17.3947 17.3376 17.2792 17.2194 17.1582 17.0956 17.0316 16.9661
16.899 16.8304 16.7602 16.6884 16.615 16.5398 16.4629 16.3842 16.3037 16.2214
16.1371 16.0509 15.9626 15.8723 15.7799 15.6854 15.5886 15.4895 15.3881 15.2843
15.1781 15.0692 14.9576 14.8428 14.7246 14.6029 14.4773 14.3476 14.2138 14.0756
13.9328 13.7852 13.6328 13.4753 13.3125 13.1442 12.9702 12.7901 12.6038 12.4109
12.211 12.0038 11.7887 11.5654 11.3334 11.0919 10.8405 10.5786 10.3053 10.02
9.7221 9.41086 9.08588 8.74704 8.39475 8.03022 7.65565 7.27447 6.89112 6.51089
6.13739 5.77056 5.40507 5.03564 4.66103 4.28064 3.89383 3.49995 3.09837 2.68858
2.27018 1.84297 1.40712 0.964336 0.524372 0.175785 0.0273486 0.00185661 0.000105505 3.55077e-05
3.26261e-05 3.24952e-05 3.25466e-05 3.25487e-05 3.25475e-05 3.24937e-05 3.24892e-05 3.25453e-05 3.2548e-05 3.25487e-05
3.25479e-05 3.25481e-05 3.24935e-05 3.24883e-05 3.25456e-05 3.2548e-05 3.25488e-05 3.2548e-05 3.24929e-05 3.24868e-05
3.24886e-05 3.2546e-05 3.24917e-05 3.25461e-05 3.2548e-05 3.25487e-05 3.25485e-05 3.25486e-05 3.25481e-05 3.24919e-05
3.24883e-05 3.24872e-05 3.25462e-05 3.25482e-05 3.24916e-05 3.24875e-05 3.25465e-05 3.25481e-05 3.25486e-05 3.25482e-05
3.2491e-05 3.24879e-05 3.24868e-05 3.25466e-05 3.25481e-05 3.25484e-05 3.24896e-05 3.2547e-05 3.24897e-05 3.25469e-05
3.25482e-05 3.25484e-05 3.24894e-05 3.2547e-05 3.24895e-05 3.2487e-05 3.24863e-05 3.24866e-05 3.2547e-05 3.25484e-05
3.24888e-05 3.25473e-05 3.24889e-05 3.24864e-05 3.25472e-05 3.2489e-05 3.24865e-05 3.24859e-05 3.25472e-05 3.24882e-05
3.2547e-05 3.25482e-05 3.24876e-05 3.25471e-05 3.24875e-05 3.25471e-05 3.24873e-05 3.25471e-05 3.24879e-05 3.24854e-05
3.2547e-05 3.25477e-05 3.25478e-05 3.24871e-05 3.24851e-05 3.2547e-05 3.24872e-05 3.2485e-05 3.25469e-05 3.25476e-05
3.24866e-05 3.25467e-05 3.25475e-05 3.24863e-05 3.25466e-05 3.24857e-05 3.25465e-05 3.25472e-05 3.2547e-05 3.24857e-05
3.25465e-05 3.25468e-05 3.24855e-05 3.24838e-05 3.25461e-05 3.2485e-05 3.24839e-05 3.25459e-05 3.25463e-05 3.24846e-05
3.25455e-05 3.24844e-05 3.24828e-05 3.24833e-05 3.24827e-05 3.24828e-05 3.24825e-05 3.25449e-05 3.24831e-05 3.24821e-05
3.24821e-05 3.25445e-05 3.24825e-05 3.25443e-05 3.25443e-05 3.2482e-05 3.25438e-05 3.25441e-05 3.25439e-05 3.24817e-05
3.25432e-05 3.24808e-05 3.24802e-05 3.248e-05 3.25425e-05 3.24802e-05 3.25422e-05 3.24797e-05 3.24794e-05 3.2479e-05
3.2479e-05 3.25413e-05 3.25413e-05 3.2541e-05 3.25409e-05 3.24785e-05 3.24772e-05 3.25399e-05 3.24777e-05 3.25395e-05
3.24768e-05 3.2539e-05 3.25391e-05 3.2476e-05 3.25384e-05 3.25382e-05 3.24752e-05 3.24746e-05 3.24747e-05 3.2537e-05
3.24745e-05 3.24735e-05 3.24736e-05 3.2473e-05 3.25356e-05 3.25357e-05 3.25353e-05 3.25351e-05 3.24722e-05 3.25344e-05
3.25341e-05 3.25339e-05 3.2471e-05 3.24705e-05 3.24702e-05 3.25325e-05 3.24694e-05 3.24693e-05 3.25316e-05 3.25314e-05
3.24686e-05 3.25307e-05 3.25307e-05 3.25304e-05 3.2467e-05 3.25295e-05 3.25294e-05 3.2529e-05 3.24657e-05 3.24657e-05
3.25282e-05 3.2528e-05 3.24645e-05 3.25273e-05 3.2527e-05 3.2464e-05 3.25264e-05 3.24631e-05 3.25259e-05 3.25256e-05
3.25254e-05 3.24623e-05 3.24616e-05 3.25245e-05 3.25243e-05 3.25241e-05 3.2461e-05 3.24606e-05 3.25232e-05 3.2523e-05
3.25227e-05 3.24594e-05 3.24595e-05 3.25222e-05 3.24591e-05 3.24585e-05 3.24587e-05 3.25213e-05 3.25211e-05 3.25209e-05
3.24576e-05 3.25207e-05 3.25206e-05 3.24575e-05 3.2457e-05 3.24569e-05 3.24568e-05 3.25199e-05 3.25198e-05 3.24569e-05
3.25197e-05 3.25198e-05 3.25197e-05 3.24537e-05 
omega 1 385 float
1.83285e+06 545742 272739 171620 122478 94191.6 76034.1 63473 54301.6 47327.7 41855.1
37451.3 33834.4 30812.7 28252.1 26055.5 24151.3 22485.2 21015.8 19710.5 18543.6
17494.5 16546.5 15685.7 14900.9 14182.5 13522.7 12914.7 12352.6 11831.7 11347.6
10896.7 10475.7 10081.8 9712.64 9365.94 9039.79 8732.49 8442.5 8168.46 7909.14
7663.44 7430.36 7209.01 6998.55 6798.26 6607.45 6425.52 6251.88 6086.04 5927.51
5775.85 5630.67 5491.6 5358.29 5230.42 5107.71 4989.88 4876.67 4767.86 4663.22
4562.55 4465.65 4372.36 4282.5 4195.92 4112.47 4032.01 3954.43 3879.59 3807.39
3737.71 3670.47 3605.56 3542.89 3482.39 3423.97 3367.56 3313.1 3260.51 3209.73
3160.71 3113.39 3067.72 3023.66 2981.15 2940.16 2900.64 2862.56 2825.88 2790.57
2756.61 2723.94 2692.49 2662.18 2632.94 2604.72 2577.46 2551.13 2525.68 2501.08
2477.28 2454.27 2432.01 2410.46 2389.59 2369.38 2349.79 2330.78 2312.31 2294.34
2276.82 2259.69 2242.9 2226.38 2210.04 2193.81 2177.57 2161.22 2144.61 2127.61
2110.02 2091.68 2072.36 2051.89 2030.07 2006.82 1982.14 1956.24 1929.56 1902.84
1876.77 1851.74 1827.83 1804.85 1782.68 1761.21 1740.28 1719.72 1699.32 1678.78
1657.66 1635.13 1609.18 1574.67 1505.38 1200.42 677.452 377.764 346.952 345.879
345.855 345.853 345.851 345.492 345.842 345.85 345.49 345.841 345.489 345.47
345.841 345.489 345.469 345.842 345.488 345.47 345.468 345.464 345.469 345.843
345.486 345.468 345.844 345.483 345.844 345.852 345.485 345.463 345.466 345.464
345.468 345.842 345.856 345.853 345.482 345.469 345.464 345.467 345.846 345.853
345.482 345.465 345.844 345.856 345.853 345.476 345.848 345.478 345.466 345.463
345.467 345.464 345.464 345.847 345.854 345.853 345.472 345.848 345.474 345.465
345.462 345.463 345.848 345.472 345.46 345.462 345.847 345.851 345.471 345.46
345.847 345.467 345.847 345.851 345.85 345.85 345.851 345.849 345.464 345.845
345.849 345.847 345.849 345.847 345.847 345.462 345.454 345.843 345.46 345.451
345.453 345.841 345.455 345.451 345.84 345.842 345.841 345.452 345.837 345.452
345.446 345.835 345.448 345.834 345.447 345.832 345.445 345.831 345.444 345.438
345.828 345.44 345.826 345.437 345.824 345.435 345.822 345.431 345.429 345.819
345.819 345.427 345.815 345.425 345.812 345.813 345.811 345.419 345.414 345.413
345.411 345.802 345.801 345.8 345.407 345.795 345.403 345.791 345.4 345.395
345.394 345.391 345.781 345.781 345.387 345.383 345.773 345.772 345.378 345.375
345.764 345.763 345.369 345.757 345.364 345.752 345.751 345.748 345.354 345.742
345.349 345.737 345.343 345.732 345.73 345.335 345.724 345.329 345.326 345.323
345.713 345.318 345.314 345.311 345.308 345.698 345.696 345.3 345.69 345.687
345.292 345.681 345.286 345.282 345.672 345.67 345.667 345.664 345.661 345.265
345.262 345.259 345.649 345.253 345.643 345.248 345.244 345.635 345.239 345.629
345.234 345.231 345.621 345.226 345.223 345.22 345.218 345.216 345.606 345.604
345.602 345.6 345.204 345.202 345.2 345.591 345.196 345.588 345.586 345.585
345.583 345.188 345.186 345.185 345.577 345.576 345.575 345.574 345.574 345.179
345.572 345.178 345.178 345.296 
Cx 1 385 float
2 2 2 2 2 2 2 2 2 2 2
2 2 2 2 2 2 2 2 2 2
2 2 2 2 2 2 2 2 2 2
2 2 2 2 2 2 2 2 2 2
2 2 2 2 2 2 2 2 2 2
2 2 2 2 2 2 2 2 2 2
2 2 2 2 2 2 2 2 2 2
2 2 2 2 2 2 2 2 2 2
2 2 2 2 2 2 2 2 2 2
2 2 2 2 2 2 2 2 2 2
2 2 2 2 2 2 2 2 2 2
2 2 2 2 2 2 2 2 2 2
2 2 2 2 2 2 2 2 2 2
2 2 2 2 2 2 2 2 2 2
2 2 2 2 2 2 2 2 2 2
2 2 2 2 2 2 2 2 2 2
2 2 2 2 2 2 2 2 2 2
2 2 2 2 2 2 2 2 2 2
2 2 2 2 2 2 2 2 2 2
2 2 2 2 2 2 2 2 2 2
2 2 2 2 2 2 2 2 2 2
2 2 2 2 2 2 2 2 2 2
2 2 2 2 2 2 2 2 2 2
2 2 2 2 2 2 2 2 2 2
2 2 2 2 2 2 2 2 2 2
2 2 2 2 2 2 2 2 2 2
2 2 2 2 2 2 2 2 2 2
2 2 2 2 2 2 2 2 2 2
2 2 2 2 2 2 2 2 2 2
2 2 2 2 2 2 2 2 2 2
2 2 2 2 2 2 2 2 2 2
2 2 2 2 2 2 2 2 2 2
2 2 2 2 2 2 2 2 2 2
2 2 2 2 2 2 2 2 2 2
2 2 2 2 2 2 2 2 2 2
2 2 2 2 2 2 2 2 2 2
2 2 2 2 2 2 2 2 2 2
2 2 2 2 2 2 2 2 2 2
2 2 2 2 
yPlus 1 385 float
0 0 0 0 0 0 0 0 0 0 0
0 0 0 0 0 0 0 0 0 0
0 0 0 0 0 0 0 0 0 0
0 0 0 0 0 0 0 0 0 0
0 0 0 0 0 0 0 0 0 0
0 0 0 0 0 0 0 0 0 0
0 0 0 0 0 0 0 0 0 0
0 0 0 0 0 0 0 0 0 0
0 0 0 0 0 0 0 0 0 0
0 0 0 0 0 0 0 0 0 0
0 0 0 0 0 0 0 0 0 0
0 0 0 0 0 0 0 0 0 0
0 0 0 0 0 0 0 0 0 0
0 0 0 0 0 0 0 0 0 0
0 0 0 0 0 0 0 0 0 0
0 0 0 0 0 0 0 0 0 0
0 0 0 0 0 0 0 0 0 0
0 0 0 0 0 0 0 0 0 0
0 0 0 0 0 0 0 0 0 0
0 0 0 0 0 0 0 0 0 0
0 0 0 0 0 0 0 0 0 0
0 0 0 0 0 0 0 0 0 0
0 0 0 0 0 0 0 0 0 0
0 0 0 0 0 0 0 0 0 0
0 0 0 0 0 0 0 0 0 0
0 0 0 0 0 0 0 0 0 0
0 0 0 0 0 0 0 0 0 0
0 0 0 0 0 0 0 0 0 0
0 0 0 0 0 0 0 0 0 0
0 0 0 0 0 0 0 0 0 0
0 0 0 0 0 0 0 0 0 0
0 0 0 0 0 0 0 0 0 0
0 0 0 0 0 0 0 0 0 0
0 0 0 0 0 0 0 0 0 0
0 0 0 0 0 0 0 0 0 0
0 0 0 0 0 0 0 0 0 0
0 0 0 0 0 0 0 0 0 0
0 0 0 0 0 0 0 0 0 0
0 0 0 0 
wallShearStress 3 385 float
0 0 0 0 0 0 0 0 0 0 0
0 0 0 0 0 0 0 0 0 0
0 0 0 0 0 0 0 0 0 0
0 0 0 0 0 0 0 0 0 0
0 0 0 0 0 0 0 0 0 0
0 0 0 0 0 0 0 0 0 0
0 0 0 0 0 0 0 0 0 0
0 0 0 0 0 0 0 0 0 0
0 0 0 0 0 0 0 0 0 0
0 0 0 0 0 0 0 0 0 0
0 0 0 0 0 0 0 0 0 0
0 0 0 0 0 0 0 0 0 0
0 0 0 0 0 0 0 0 0 0
0 0 0 0 0 0 0 0 0 0
0 0 0 0 0 0 0 0 0 0
0 0 0 0 0 0 0 0 0 0
0 0 0 0 0 0 0 0 0 0
0 0 0 0 0 0 0 0 0 0
0 0 0 0 0 0 0 0 0 0
0 0 0 0 0 0 0 0 0 0
0 0 0 0 0 0 0 0 0 0
0 0 0 0 0 0 0 0 0 0
0 0 0 0 0 0 0 0 0 0
0 0 0 0 0 0 0 0 0 0
0 0 0 0 0 0 0 0 0 0
0 0 0 0 0 0 0 0 0 0
0 0 0 0 0 0 0 0 0 0
0 0 0 0 0 0 0 0 0 0
0 0 0 0 0 0 0 0 0 0
0 0 0 0 0 0 0 0 0 0
0 0 0 0 0 0 0 0 0 0
0 0 0 0 0 0 0 0 0 0
0 0 0 0 0 0 0 0 0 0
0 0 0 0 0 0 0 0 0 0
0 0 0 0 0 0 0 0 0 0
0 0 0 0 0 0 0 0 0 0
0 0 0 0 0 0 0 0 0 0
0 0 0 0 0 0 0 0 0 0
0 0 0 0 0 0 0 0 0 0
0 0 0 0 0 0 0 0 0 0
0 0 0 0 0 0 0 0 0 0
0 0 0 0 0 0 0 0 0 0
0 0 0 0 0 0 0 0 0 0
0 0 0 0 0 0 0 0 0 0
0 0 0 0 0 0 0 0 0 0
0 0 0 0 0 0 0 0 0 0
0 0 0 0 0 0 0 0 0 0
0 0 0 0 0 0 0 0 0 0
0 0 0 0 0 0 0 0 0 0
0 0 0 0 0 0 0 0 0 0
0 0 0 0 0 0 0 0 0 0
0 0 0 0 0 0 0 0 0 0
0 0 0 0 0 0 0 0 0 0
0 0 0 0 0 0 0 0 0 0
0 0 0 0 0 0 0 0 0 0
0 0 0 0 0 0 0 0 0 0
0 0 0 0 0 0 0 0 0 0
0 0 0 0 0 0 0 0 0 0
0 0 0 0 0 0 0 0 0 0
0 0 0 0 0 0 0 0 0 0
0 0 0 0 0 0 0 0 0 0
0 0 0 0 0 0 0 0 0 0
0 0 0 0 0 0 0 0 0 0
0 0 0 0 0 0 0 0 0 0
0 0 0 0 0 0 0 0 0 0
0 0 0 0 0 0 0 0 0 0
0 0 0 0 0 0 0 0 0 0
0 0 0 0 0 0 0 0 0 0
0 0 0 0 0 0 0 0 0 0
0 0 0 0 0 0 0 0 0 0
0 0 0 0 0 0 0 0 0 0
0 0 0 0 0 0 0 0 0 0
0 0 0 0 0 0 0 0 0 0
0 0 0 0 0 0 0 0 0 0
0 0 0 0 0 0 0 0 0 0
0 0 0 0 0 0 0 0 0 0
0 0 0 0 0 0 0 0 0 0
0 0 0 0 0 0 0 0 0 0
0 0 0 0 0 0 0 0 0 0
0 0 0 0 0 0 0 0 0 0
0 0 0 0 0 0 0 0 0 0
0 0 0 0 0 0 0 0 0 0
0 0 0 0 0 0 0 0 0 0
0 0 0 0 0 0 0 0 0 0
0 0 0 0 0 0 0 0 0 0
0 0 0 0 0 0 0 0 0 0
0 0 0 0 0 0 0 0 0 0
0 0 0 0 0 0 0 0 0 0
0 0 0 0 0 0 0 0 0 0
0 0 0 0 0 0 0 0 0 0
0 0 0 0 0 0 0 0 0 0
0 0 0 0 0 0 0 0 0 0
0 0 0 0 0 0 0 0 0 0
0 0 0 0 0 0 0 0 0 0
0 0 0 0 0 0 0 0 0 0
0 0 0 0 0 0 0 0 0 0
0 0 0 0 0 0 0 0 0 0
0 0 0 0 0 0 0 0 0 0
0 0 0 0 0 0 0 0 0 0
0 0 0 0 0 0 0 0 0 0
0 0 0 0 0 0 0 0 0 0
0 0 0 0 0 0 0 0 0 0
0 0 0 0 0 0 0 0 0 0
0 0 0 0 0 0 0 0 0 0
0 0 0 0 0 0 0 0 0 0
0 0 0 0 0 0 0 0 0 0
0 0 0 0 0 0 0 0 0 0
0 0 0 0 0 0 0 0 0 0
0 0 0 0 0 0 0 0 0 0
0 0 0 0 0 0 0 0 0 0
0 0 0 0 0 0 0 0 0 0
0 0 0 0 0 0 0 0 0 0
0 0 0 0 0 0 0 0 0 0
0 0 0 0 0 0 0 0 0 0
0 0 0 0 0 0 0 0 0 0
0 0 0 0 
U 3 385 float
10.1727 7.76275e-05 0 21.6179 0.000219103 0 27.0517 0.000371783 0 30.2613 0.00045031
0 32.4789 0.000554796 0 34.1617 0.000654319 0 35.5141 0.000750438 0
36.6441 0.00084554 0 37.6151 0.000940659 0 38.4671 0.00103622 0 39.2269
0.0011325 0 39.9134 0.00122977 0 40.5401 0.00132822 0 41.1173 0.00142804
0 41.6529 0.00152936 0 42.1529 0.00163231 0 42.6222 0.001737 0
43.0648 0.00184353 0 43.484 0.00195199 0 43.8825 0.00206246 0 44.2624
0.00217503 0 44.6259 0.00228975 0 44.9744 0.00240671 0 45.3095 0.00252596
0 45.6323 0.00264757 0 45.9439 0.00277161 0 46.2453 0.00289812 0
46.5373 0.00302717 0 46.8206 0.00315882 0 47.0959 0.00329313 0 47.3638
0.00343014 0 47.6248 0.00356992 0 47.8795 0.00371252 0 48.1282 0.003858
0 48.3713 0.00400643 0 48.6092 0.00415786 0 48.8422 0.00431235 0
49.0707 0.00446998 0 49.2948 0.00463081 0 49.5149 0.00479491 0 49.7312
0.00496236 0 49.944 0.00513321 0 50.1533 0.00530756 0 50.3595 0.00548549
0 50.5627 0.00566706 0 50.763 0.00585238 0 50.9606 0.00604151 0
51.1557 0.00623456 0 51.3484 0.00643162 0 51.5387 0.00663277 0 51.727
0.00683813 0 51.9132 0.00704778 0 52.0975 0.00726183 0 52.2799 0.0074804
0 52.4606 0.00770359 0 52.6397 0.00793151 0 52.8172 0.00816428 0
52.9933 0.00840204 0 53.168 0.00864489 0 53.3414 0.00889298 0 53.5136
0.00914643 0 53.6846 0.00940539 0 53.8546 0.00967001 0 54.0235 0.00994042
0 54.1915 0.0102168 0 54.3585 0.0104993 0 54.5248 0.010788 0
54.6903 0.0110832 0 54.8551 0.0113851 0 55.0192 0.0116937 0 55.1828
0.0120094 0 55.3457 0.0123322 0 55.5083 0.0126625 0 55.6703 0.0130004
0 55.832 0.0133461 0 55.9933 0.0136999 0 56.1544 0.0140619 0
56.3152 0.0144325 0 56.4758 0.0148119 0 56.6363 0.0152004 0 56.7967
0.0155982 0 56.9571 0.0160056 0 57.1174 0.0164229 0 57.2778 0.0168504
0 57.4383 0.0172885 0 57.5989 0.0177374 0 57.7598 0.0181976 0
57.9208 0.0186694 0 58.0822 0.0191531 0 58.2439 0.0196493 0 58.4059
0.0201584 0 58.5685 0.0206807 0 58.7315 0.021217 0 58.8955 0.0217687
0 59.0605 0.0223369 0 59.2267 0.0229228 0 59.3943 0.0235271 0
59.5632 0.0241505 0 59.7336 0.0247935 0 59.9053 0.0254565 0 60.0785
0.0261402 0 60.2531 0.026845 0 60.4291 0.0275714 0 60.6065 0.0283202
0 60.7855 0.0290919 0 60.9659 0.0298876 0 61.1479 0.030708 0
61.3316 0.0315542 0 61.5171 0.0324274 0 61.7044 0.0333288 0 61.8938
0.0342599 0 62.0852 0.0352223 0 62.279 0.0362177 0 62.4753 0.0372479
0 62.6743 0.0383151 0 62.8761 0.0394214 0 63.0809 0.040569 0
63.2891 0.0417606 0 63.5007 0.0429985 0 63.7159 0.0442853 0 63.935
0.0456233 0 64.1579 0.0470145 0 64.3846 0.0484605 0 64.615 0.0499615
0 64.8487 0.0515165 0 65.085 0.0531223 0 65.3228 0.0547725 0
65.5606 0.0564574 0 65.7965 0.0581631 0 66.0284 0.0598729 0 66.2541
0.0615706 0 66.4724 0.0632479 0 66.6838 0.0649071 0 66.892 0.0665756
0 67.1007 0.0682987 0 67.3105 0.070069 0 67.5214 0.0718872 0
67.7334 0.0737574 0 67.9465 0.0756829 0 68.1605 0.0776668 0 68.3754
0.079713 0 68.5911 0.0818262 0 68.8075 0.0840113 0 69.0241 0.0862716
0 69.24 0.0886189 0 69.4515 0.0911536 0 69.6245 0.0934395 0
69.6969 0.0946565 0 69.7061 0.0953375 0 69.7056 0.0960327 0 69.7055
0.0967127 0 69.7055 0.0973451 0 69.7055 0.097927 0 69.7054 0.0984613
0 69.7054 0.0989505 0 69.7054 0.0993971 0 69.7054 0.0998034 0
69.7054 0.100172 0 69.7054 0.100504 0 69.7054 0.100803 0 69.7053
0.10107 0 69.7053 0.101308 0 69.7053 0.101518 0 69.7053 0.101702
0 69.7053 0.101862 0 69.7053 0.102 0 69.7052 0.102116 0
69.7052 0.102214 0 69.7052 0.102293 0 69.7052 0.102356 0 69.7052
0.102403 0 69.7051 0.102436 0 69.7051 0.102457 0 69.7051 0.102465
0 69.7051 0.102462 0 69.705 0.102449 0 69.705 0.102427 0
69.705 0.102396 0 69.705 0.102358 0 69.7049 0.102313 0 69.7049
0.102261 0 69.7049 0.102203 0 69.7048 0.10214 0 69.7048 0.102073
0 69.7048 0.102001 0 69.7047 0.101925 0 69.7047 0.101845 0
69.7047 0.101762 0 69.7046 0.101676 0 69.7046 0.101587 0 69.7046
0.101495 0 69.7045 0.101401 0 69.7045 0.101305 0 69.7044 0.101207
0 69.7044 0.101107 0 69.7043 0.101006 0 69.7043 0.100902 0
69.7042 0.100797 0 69.7042 0.100691 0 69.7041 0.100583 0 69.7041
0.100474 0 69.704 0.100363 0 69.704 0.100251 0 69.7039 0.100137
0 69.7038 0.100023 0 69.7038 0.0999065 0 69.7037 0.0997891 0
69.7036 0.0996704 0 69.7036 0.0995503 0 69.7035 0.0994289 0 69.7034
0.0993062 0 69.7033 0.099182 0 69.7033 0.0990565 0 69.7032 0.0989295
0 69.7031 0.098801 0 69.703 0.0986711 0 69.7029 0.0985396 0
69.7028 0.0984066 0 69.7027 0.098272 0 69.7027 0.0981358 0 69.7026
0.0979979 0 69.7025 0.0978583 0 69.7023 0.0977171 0 69.7022 0.097574
0 69.7021 0.0974292 0 69.702 0.0972825 0 69.7019 0.097134 0
69.7018 0.0969835 0 69.7017 0.0968311 0 69.7015 0.0966767 0 69.7014
0.0965203 0 69.7013 0.0963618 0 69.7011 0.0962012 0 69.701 0.0960385
0 69.7008 0.0958735 0 69.7007 0.0957063 0 69.7005 0.0955369 0
69.7004 0.0953651 0 69.7002 0.0951909 0 69.7 0.0950143 0 69.6999
0.0948353 0 69.6997 0.0946537 0 69.6995 0.0944696 0 69.6993 0.0942829
0 69.6991 0.0940936 0 69.6989 0.0939016 0 69.6987 0.0937068 0
69.6985 0.0935092 0 69.6983 0.0933088 0 69.6981 0.0931055 0 69.6979
0.0928992 0 69.6976 0.0926899 0 69.6974 0.0924776 0 69.6972 0.0922622
0 69.6969 0.0920436 0 69.6966 0.0918219 0 69.6964 0.0915968 0
69.6961 0.0913684 0 69.6958 0.0911366 0 69.6956 0.0909014 0 69.6953
0.0906627 0 69.695 0.0904204 0 69.6947 0.0901745 0 69.6944 0.089925
0 69.6941 0.0896716 0 69.6937 0.0894145 0 69.6934 0.0891535 0
69.6931 0.0888885 0 69.6927 0.0886195 0 69.6924 0.0883465 0 69.692
0.0880693 0 69.6917 0.0877879 0 69.6913 0.0875022 0 69.6909 0.0872122
0 69.6905 0.0869177 0 69.6901 0.0866187 0 69.6897 0.0863152 0
69.6893 0.086007 0 69.6889 0.085694 0 69.6884 0.0853763 0 69.688
0.0850537 0 69.6875 0.0847261 0 69.6871 0.0843934 0 69.6866 0.0840556
0 69.6861 0.0837126 0 69.6857 0.0833643 0 69.6852 0.0830106 0
69.6847 0.0826515 0 69.6842 0.0822867 0 69.6836 0.0819163 0 69.6831
0.0815401 0 69.6826 0.0811581 0 69.682 0.0807702 0 69.6815 0.0803762
0 69.6809 0.0799761 0 69.6803 0.0795697 0 69.6797 0.079157 0
69.6792 0.0787378 0 69.6786 0.0783122 0 69.678 0.0778798 0 69.6773
0.0774407 0 69.6767 0.0769947 0 69.6761 0.0765418 0 69.6755 0.0760817
0 69.6748 0.0756145 0 69.6741 0.0751399 0 69.6735 0.0746579 0
69.6728 0.0741683 0 69.6721 0.073671 0 69.6715 0.073166 0 69.6708
0.072653 0 69.6701 0.0721319 0 69.6694 0.0716027 0 69.6686 0.0710651
0 69.6679 0.0705191 0 69.6672 0.0699645 0 69.6665 0.0694011 0
69.6657 0.0688289 0 69.665 0.0682477 0 69.6643 0.0676574 0 69.6635
0.0670578 0 69.6627 0.0664487 0 69.662 0.06583 0 69.6612 0.0652016
0 69.6604 0.0645633 0 69.6597 0.0639149 0 69.6589 0.0632564 0
69.6581 0.0625874 0 69.6573 0.0619079 0 69.6566 0.0612177 0 69.6558
0.0605167 0 69.655 0.0598046 0 69.6542 0.0590812 0 69.6534 0.0583465
0 69.6526 0.0576002 0 69.6518 0.0568422 0 69.651 0.0560722 0
69.6502 0.0552902 0 69.6495 0.0544958 0 69.6487 0.0536889 0 69.6479
0.0528693 0 69.6471 0.0520368 0 69.6463 0.0511913 0 69.6456 0.0503324
0 69.6448 0.04946 0 69.644 0.048574 0 69.6433 0.047674 0
69.6425 0.0467599 0 69.6417 0.0458315 0 69.641 0.0448885 0 69.6403
0.0439308 0 69.6395 0.042958 0 69.6388 0.04197 0 69.6381 0.0409665
0 69.6374 0.0399474 0 69.6367 0.0389123 0 69.636 0.037861 0
69.6353 0.0367934 0 69.6347 0.0357091 0 69.634 0.0346079 0 69.6334
0.0334895 0 69.6328 0.0323538 0 69.6322 0.0312004 0 69.6316 0.0300291
0 69.631 0.0288396 0 69.6304 0.0276317 0 69.6299 0.0264051 0
69.6294 0.0251595 0 69.6289 0.0238947 0 69.6284 0.0226103 0 69.6279
0.0213062 0 69.6275 0.019982 0 69.6271 0.0186375 0 69.6267 0.0172723
0 69.6263 0.0158863 0 69.626 0.014479 0 69.6257 0.0130503 0
69.6254 0.0115997 0 69.6251 0.0101271 0 69.6249 0.00863218 0 69.6247
0.00711456 0 69.6245 0.005574 0 69.6244 0.00401018 0 69.6244 0.00242281
0 69.6243 0.000811603 0 
C 3 385 float
2 2.4654e-05 0.05 2 7.4331e-05 0.05 2 0.000124751 0.05 2 0.000175926
0.05 2 0.000227867 0.05 2 0.000280585 0.05 2 0.000334092 0.05
2 0.000388399 0.05 2 0.000443519 0.05 2 0.000499465 0.05 2
0.000556247 0.05 2 0.000613879 0.05 2 0.000672373 0.05 2 0.000731743
0.05 2 0.000792001 0.05 2 0.000853161 0.05 2 0.000915236 0.05
2 0.00097824 0.05 2 0.00104219 0.05 2 0.00110709 0.05 2
0.00117297 0.05 2 0.00123983 0.05 2 0.00130769 0.05 2 0.00137656
0.05 2 0.00144647 0.05 2 0.00151743 0.05 2 0.00158944 0.05
2 0.00166254 0.05 2 0.00173672 0.05 2 0.00181202 0.05 2
0.00188844 0.05 2 0.00196601 0.05 2 0.00204474 0.05 2 0.00212465
0.05 2 0.00220575 0.05 2 0.00228806 0.05 2 0.00237161 0.05
2 0.00245641 0.05 2 0.00254248 0.05 2 0.00262983 0.05 2
0.00271849 0.05 2 0.00280848 0.05 2 0.00289982 0.05 2 0.00299252
0.05 2 0.00308661 0.05 2 0.00318211 0.05 2 0.00327903 0.05
2 0.00337741 0.05 2 0.00347726 0.05 2 0.0035786 0.05 2
0.00368146 0.05 2 0.00378586 0.05 2 0.00389182 0.05 2 0.00399937
0.05 2 0.00410853 0.05 2 0.00421932 0.05 2 0.00433176 0.05
2 0.00444589 0.05 2 0.00456173 0.05 2 0.00467931 0.05 2
0.00479864 0.05 2 0.00491975 0.05 2 0.00504268 0.05 2 0.00516745
0.05 2 0.00529409 0.05 2 0.00542262 0.05 2 0.00555307 0.05
2 0.00568548 0.05 2 0.00581987 0.05 2 0.00595627 0.05 2
0.00609471 0.05 2 0.00623522 0.05 2 0.00637784 0.05 2 0.00652258
0.05 2 0.0066695 0.05 2 0.00681861 0.05 2 0.00696996 0.05
2 0.00712357 0.05 2 0.00727948 0.05 2 0.00743772 0.05 2
0.00759833 0.05 2 0.00776134 0.05 2 0.00792679 0.05 2 0.00809472
0.05 2 0.00826516 0.05 2 0.00843815 0.05 2 0.00861373 0.05
2 0.00879194 0.05 2 0.00897282 0.05 2 0.0091564 0.05 2
0.00934273 0.05 2 0.00953184 0.05 2 0.00972379 0.05 2 0.00991861
0.05 2 0.0101163 0.05 2 0.010317 0.05 2 0.0105207 0.05
2 0.0107275 0.05 2 0.0109373 0.05 2 0.0111503 0.05 2
0.0113665 0.05 2 0.0115859 0.05 2 0.0118085 0.05 2 0.0120346
0.05 2 0.012264 0.05 2 0.0124968 0.05 2 0.0127331 0.05
2 0.012973 0.05 2 0.0132164 0.05 2 0.0134635 0.05 2
0.0137143 0.05 2 0.0139688 0.05 2 0.0142272 0.05 2 0.0144894
0.05 2 0.0147555 0.05 2 0.0150256 0.05 2 0.0152998 0.05
2 0.015578 0.05 2 0.0158605 0.05 2 0.0161471 0.05 2
0.016438 0.05 2 0.0167333 0.05 2 0.0170331 0.05 2 0.0173373
0.05 2 0.017646 0.05 2 0.0179594 0.05 2 0.0182774 0.05
2 0.0186003 0.05 2 0.0189279 0.05 2 0.0192605 0.05 2
0.019598 0.05 2 0.0199406 0.05 2 0.0202883 0.05 2 0.0206412
0.05 2 0.0209994 0.05 2 0.0213629 0.05 2 0.0217319 0.05
2 0.0221064 0.05 2 0.0224866 0.05 2 0.0228724 0.05 2
0.023264 0.05 2 0.0236614 0.05 2 0.0240648 0.05 2 0.0244742
0.05 2 0.0248898 0.05 2 0.0253115 0.05 2 0.0257396 0.05
2 0.0261741 0.05 2 0.0266151 0.05 2 0.0270627 0.05 2
0.027517 0.05 2 0.027978 0.05 2 0.028446 0.05 2 0.028921
0.05 2 0.0294031 0.05 2 0.0298924 0.05 2 0.0303891 0.05
2 0.0308931 0.05 2 0.0314047 0.05 2 0.031924 0.05 2
0.032451 0.05 2 0.0329859 0.05 2 0.0335289 0.05 2 0.0340799
0.05 2 0.0346392 0.05 2 0.0352069 0.05 2 0.035783 0.05
2 0.0363678 0.05 2 0.0369614 0.05 2 0.0375638 0.05 2
0.0381752 0.05 2 0.0387958 0.05 2 0.0394256 0.05 2 0.0400649
0.05 2 0.0407138 0.05 2 0.0413724 0.05 2 0.0420408 0.05
2 0.0427192 0.05 2 0.0434078 0.05 2 0.0441067 0.05 2
0.044816 0.05 2 0.045536 0.05 2 0.0462667 0.05 2 0.0470084
0.05 2 0.0477611 0.05 2 0.0485251 0.05 2 0.0493006 0.05
2 0.0500877 0.05 2 0.0508865 0.05 2 0.0516973 0.05 2
0.0525202 0.05 2 0.0533555 0.05 2 0.0542032 0.05 2 0.0550637
0.05 2 0.055937 0.05 2 0.0568233 0.05 2 0.057723 0.05
2 0.0586361 0.05 2 0.0595629 0.05 2 0.0605035 0.05 2
0.0614582 0.05 2 0.0624272 0.05 2 0.0634107 0.05 2 0.0644089
0.05 2 0.0654221 0.05 2 0.0664504 0.05 2 0.0674941 0.05
2 0.0685534 0.05 2 0.0696286 0.05 2 0.0707198 0.05 2
0.0718274 0.05 2 0.0729516 0.05 2 0.0740926 0.05 2 0.0752506
0.05 2 0.076426 0.05 2 0.077619 0.05 2 0.0788299 0.05
2 0.0800588 0.05 2 0.0813062 0.05 2 0.0825722 0.05 2
0.0838571 0.05 2 0.0851613 0.05 2 0.086485 0.05 2 0.0878285
0.05 2 0.0891921 0.05 2 0.0905761 0.05 2 0.0919809 0.05
2 0.0934066 0.05 2 0.0948537 0.05 2 0.0963225 0.05 2
0.0978132 0.05 2 0.0993262 0.05 2 0.100862 0.05 2 0.102421
0.05 2 0.104003 0.05 2 0.105608 0.05 2 0.107238 0.05
2 0.108892 0.05 2 0.110571 0.05 2 0.112275 0.05 2
0.114004 0.05 2 0.115759 0.05 2 0.117541 0.05 2 0.119349
0.05 2 0.121185 0.05 2 0.123047 0.05 2 0.124938 0.05
2 0.126857 0.05 2 0.128805 0.05 2 0.130781 0.05 2
0.132788 0.05 2 0.134824 0.05 2 0.136891 0.05 2 0.138989
0.05 2 0.141118 0.05 2 0.143279 0.05 2 0.145473 0.05
2 0.147699 0.05 2 0.149958 0.05 2 0.152252 0.05 2
0.154579 0.05 2 0.156942 0.05 2 0.15934 0.05 2 0.161773
0.05 2 0.164244 0.05 2 0.166751 0.05 2 0.169295 0.05
2 0.171878 0.05 2 0.174499 0.05 2 0.17716 0.05 2
0.17986 0.05 2 0.182601 0.05 2 0.185383 0.05 2 0.188207
0.05 2 0.191072 0.05 2 0.193981 0.05 2 0.196933 0.05
2 0.199929 0.05 2 0.20297 0.05 2 0.206057 0.05 2
0.20919 0.05 2 0.21237 0.05 2 0.215597 0.05 2 0.218873
0.05 2 0.222197 0.05 2 0.225572 0.05 2 0.228996 0.05
2 0.232473 0.05 2 0.236001 0.05 2 0.239582 0.05 2
0.243216 0.05 2 0.246905 0.05 2 0.250649 0.05 2 0.254449
0.05 2 0.258306 0.05 2 0.262221 0.05 2 0.266194 0.05
2 0.270227 0.05 2 0.27432 0.05 2 0.278475 0.05 2
0.282691 0.05 2 0.286971 0.05 2 0.291314 0.05 2 0.295723
0.05 2 0.300198 0.05 2 0.304739 0.05 2 0.309349 0.05
2 0.314027 0.05 2 0.318776 0.05 2 0.323596 0.05 2
0.328487 0.05 2 0.333452 0.05 2 0.338492 0.05 2 0.343606
0.05 2 0.348797 0.05 2 0.354066 0.05 2 0.359414 0.05
2 0.364842 0.05 2 0.370351 0.05 2 0.375942 0.05 2
0.381617 0.05 2 0.387377 0.05 2 0.393223 0.05 2 0.399157
0.05 2 0.40518 0.05 2 0.411292 0.05 2 0.417496 0.05
2 0.423793 0.05 2 0.430184 0.05 2 0.436671 0.05 2
0.443255 0.05 2 0.449937 0.05 2 0.45672 0.05 2 0.463604
0.05 2 0.47059 0.05 2 0.477682 0.05 2 0.484879 0.05
2 0.492185 0.05 2 0.499599 0.05 2 0.507125 0.05 2
0.514763 0.05 2 0.522515 0.05 2 0.530384 0.05 2 0.53837
0.05 2 0.546476 0.05 2 0.554703 0.05 2 0.563053 0.05
2 0.571528 0.05 2 0.58013 0.05 2 0.588861 0.05 2
0.597722 0.05 2 0.606716 0.05 2 0.615844 0.05 2 0.625109
0.05 2 0.634513 0.05 2 0.644058 0.05 2 0.653745 0.05
2 0.663577 0.05 2 0.673557 0.05 2 0.683685 0.05 2
0.693966 0.05 2 0.7044 0.05 2 0.71499 0.05 2 0.725739
0.05 2 0.736648 0.05 2 0.747721 0.05 2 0.75896 0.05
2 0.770366 0.05 2 0.781944 0.05 2 0.793695 0.05 2
0.805621 0.05 2 0.817726 0.05 2 0.830012 0.05 2 0.842482
0.05 2 0.855139 0.05 2 0.867985 0.05 2 0.881023 0.05
2 0.894256 0.05 2 0.907688 0.05 2 0.92132 0.05 2
0.935157 0.05 2 0.9492 0.05 2 0.963454 0.05 2 0.97792
0.05 2 0.992604 0.05 
POINT_DATA  772
FIELD attributes 11
Cy 1 772 float
2.4654e-05 4.94925e-05 4.94925e-05 2.4654e-05 9.95412e-05 9.95412e-05 0.000150339 0.000150339 0.000201897 0.000201897 0.000254226
0.000254226 0.000307338 0.000307338 0.000361245 0.000361245 0.000415959 0.000415959 0.000471492 0.000471492 0.000527856
0.000527856 0.000585063 0.000585063 0.000643126 0.000643126 0.000702058 0.000702058 0.000761872 0.000761872 0.000822581
0.000822581 0.000884199 0.000884199 0.000946738 0.000946738 0.00101021 0.00101021 0.00107464 0.00107464 0.00114003
0.00114003 0.0012064 0.0012064 0.00127376 0.00127376 0.00134213 0.00134213 0.00141152 0.00141152 0.00148195
0.00148195 0.00155343 0.00155343 0.00162599 0.00162599 0.00169963 0.00169963 0.00177437 0.00177437 0.00185023
0.00185023 0.00192723 0.00192723 0.00200537 0.00200537 0.00208469 0.00208469 0.0021652 0.0021652 0.00224691
0.00224691 0.00232984 0.00232984 0.00241401 0.00241401 0.00249944 0.00249944 0.00258615 0.00258615 0.00267416
0.00267416 0.00276349 0.00276349 0.00285415 0.00285415 0.00294617 0.00294617 0.00303956 0.00303956 0.00313436
0.00313436 0.00323057 0.00323057 0.00332822 0.00332822 0.00342733 0.00342733 0.00352793 0.00352793 0.00363003
0.00363003 0.00373366 0.00373366 0.00383884 0.00383884 0.0039456 0.0039456 0.00405395 0.00405395 0.00416392
0.00416392 0.00427554 0.00427554 0.00438883 0.00438883 0.00450381 0.00450381 0.00462052 0.00462052 0.00473897
0.00473897 0.00485919 0.00485919 0.00498122 0.00498122 0.00510507 0.00510507 0.00523077 0.00523077 0.00535835
0.00535835 0.00548785 0.00548785 0.00561928 0.00561928 0.00575267 0.00575267 0.00588807 0.00588807 0.00602549
0.00602549 0.00616496 0.00616496 0.00630653 0.00630653 0.00645021 0.00645021 0.00659604 0.00659604 0.00674406
0.00674406 0.00689429 0.00689429 0.00704676 0.00704676 0.00720152 0.00720152 0.0073586 0.0073586 0.00751802
0.00751802 0.00767983 0.00767983 0.00784407 0.00784407 0.00801076 0.00801076 0.00817994 0.00817994 0.00835166
0.00835166 0.00852594 0.00852594 0.00870284 0.00870284 0.00888238 0.00888238 0.00906461 0.00906461 0.00924956
0.00924956 0.00943729 0.00943729 0.00962782 0.00962782 0.0098212 0.0098212 0.0100175 0.0100175 0.0102167
0.0102167 0.0104189 0.0104189 0.0106241 0.0106241 0.0108324 0.0108324 0.0110438 0.0110438 0.0112584
0.0112584 0.0114762 0.0114762 0.0116972 0.0116972 0.0119216 0.0119216 0.0121493 0.0121493 0.0123804
0.0123804 0.012615 0.012615 0.012853 0.012853 0.0130947 0.0130947 0.0133399 0.0133399 0.0135889
0.0135889 0.0138415 0.0138415 0.014098 0.014098 0.0143583 0.0143583 0.0146224 0.0146224 0.0148906
0.0148906 0.0151627 0.0151627 0.0154389 0.0154389 0.0157192 0.0157192 0.0160038 0.0160038 0.0162926
0.0162926 0.0165857 0.0165857 0.0168832 0.0168832 0.0171852 0.0171852 0.0174916 0.0174916 0.0178027
0.0178027 0.0181184 0.0181184 0.0184388 0.0184388 0.0187641 0.0187641 0.0190942 0.0190942 0.0194292
0.0194292 0.0197693 0.0197693 0.0201144 0.0201144 0.0204647 0.0204647 0.0208203 0.0208203 0.0211812
0.0211812 0.0215474 0.0215474 0.0219192 0.0219192 0.0222965 0.0222965 0.0226795 0.0226795 0.0230682
0.0230682 0.0234627 0.0234627 0.0238631 0.0238631 0.0242695 0.0242695 0.024682 0.024682 0.0251006
0.0251006 0.0255256 0.0255256 0.0259569 0.0259569 0.0263946 0.0263946 0.0268389 0.0268389 0.0272898
0.0272898 0.0277475 0.0277475 0.028212 0.028212 0.0286835 0.0286835 0.0291621 0.0291621 0.0296478
0.0296478 0.0301407 0.0301407 0.0306411 0.0306411 0.0311489 0.0311489 0.0316644 0.0316644 0.0321875
0.0321875 0.0327185 0.0327185 0.0332574 0.0332574 0.0338044 0.0338044 0.0343596 0.0343596 0.034923
0.034923 0.035495 0.035495 0.0360754 0.0360754 0.0366646 0.0366646 0.0372626 0.0372626 0.0378695
0.0378695 0.0384855 0.0384855 0.0391107 0.0391107 0.0397453 0.0397453 0.0403894 0.0403894 0.0410431
0.0410431 0.0417066 0.0417066 0.04238 0.04238 0.0430635 0.0430635 0.0437572 0.0437572 0.0444613
0.0444613 0.045176 0.045176 0.0459013 0.0459013 0.0466375 0.0466375 0.0473847 0.0473847 0.0481431
0.0481431 0.0489129 0.0489129 0.0496941 0.0496941 0.0504871 0.0504871 0.0512919 0.0512919 0.0521088
0.0521088 0.0529379 0.0529379 0.0537794 0.0537794 0.0546334 0.0546334 0.0555003 0.0555003 0.0563802
0.0563802 0.0572732 0.0572732 0.0581795 0.0581795 0.0590995 0.0590995 0.0600332 0.0600332 0.0609808
0.0609808 0.0619427 0.0619427 0.0629189 0.0629189 0.0639098 0.0639098 0.0649155 0.0649155 0.0659362
0.0659362 0.0669722 0.0669722 0.0680237 0.0680237 0.069091 0.069091 0.0701742 0.0701742 0.0712736
0.0712736 0.0723895 0.0723895 0.0735221 0.0735221 0.0746716 0.0746716 0.0758383 0.0758383 0.0770225
0.0770225 0.0782244 0.0782244 0.0794443 0.0794443 0.0806825 0.0806825 0.0819392 0.0819392 0.0832146
0.0832146 0.0845092 0.0845092 0.0858232 0.0858232 0.0871568 0.0871568 0.0885103 0.0885103 0.0898841
0.0898841 0.0912785 0.0912785 0.0926938 0.0926938 0.0941302 0.0941302 0.0955881 0.0955881 0.0970678
0.0970678 0.0985697 0.0985697 0.100094 0.100094 0.101641 0.101641 0.103212 0.103212 0.104805
0.104805 0.106423 0.106423 0.108065 0.108065 0.109731 0.109731 0.111423 0.111423 0.113139
0.113139 0.114882 0.114882 0.11665 0.11665 0.118445 0.118445 0.120267 0.120267 0.122116
0.122116 0.123993 0.123993 0.125897 0.125897 0.127831 0.127831 0.129793 0.129793 0.131785
0.131785 0.133806 0.133806 0.135858 0.135858 0.13794 0.13794 0.140053 0.140053 0.142199
0.142199 0.144376 0.144376 0.146586 0.146586 0.148829 0.148829 0.151105 0.151105 0.153415
0.153415 0.155761 0.155761 0.158141 0.158141 0.160557 0.160557 0.163008 0.163008 0.165497
0.165497 0.168023 0.168023 0.170587 0.170587 0.173189 0.173189 0.17583 0.17583 0.17851
0.17851 0.181231 0.181231 0.183992 0.183992 0.186795 0.186795 0.189639 0.189639 0.192527
0.192527 0.195457 0.195457 0.198431 0.198431 0.20145 0.20145 0.204514 0.204514 0.207624
0.207624 0.21078 0.21078 0.213983 0.213983 0.217235 0.217235 0.220535 0.220535 0.223884
0.223884 0.227284 0.227284 0.230734 0.230734 0.234237 0.234237 0.237791 0.237791 0.241399
0.241399 0.245061 0.245061 0.248777 0.248777 0.252549 0.252549 0.256378 0.256378 0.260264
0.260264 0.264208 0.264208 0.268211 0.268211 0.272274 0.272274 0.276397 0.276397 0.280583
0.280583 0.284831 0.284831 0.289143 0.289143 0.293519 0.293519 0.29796 0.29796 0.302468
0.302468 0.307044 0.307044 0.311688 0.311688 0.316402 0.316402 0.321186 0.321186 0.326041
0.326041 0.33097 0.33097 0.335972 0.335972 0.341049 0.341049 0.346202 0.346202 0.351432
0.351432 0.35674 0.35674 0.362128 0.362128 0.367596 0.367596 0.373146 0.373146 0.37878
0.37878 0.384497 0.384497 0.3903 0.3903 0.39619 0.39619 0.402168 0.402168 0.408236
0.408236 0.414394 0.414394 0.420645 0.420645 0.426989 0.426989 0.433428 0.433428 0.439963
0.439963 0.446596 0.446596 0.453328 0.453328 0.460162 0.460162 0.467097 0.467097 0.474136
0.474136 0.481281 0.481281 0.488532 0.488532 0.495892 0.495892 0.503362 0.503362 0.510944
0.510944 0.518639 0.518639 0.52645 0.52645 0.534377 0.534377 0.542423 0.542423 0.550589
0.550589 0.558878 0.558878 0.56729 0.56729 0.575829 0.575829 0.584495 0.584495 0.593291
0.593291 0.602219 0.602219 0.61128 0.61128 0.620477 0.620477 0.629811 0.629811 0.639285
0.639285 0.648901 0.648901 0.658661 0.658661 0.668567 0.668567 0.678621 0.678621 0.688825
0.688825 0.699182 0.699182 0.709694 0.709694 0.720364 0.720364 0.731193 0.731193 0.742184
0.742184 0.75334 0.75334 0.764663 0.764663 0.776155 0.776155 0.787819 0.787819 0.799657
0.799657 0.811673 0.811673 0.823869 0.823869 0.836247 0.836247 0.84881 0.84881 0.861561
0.861561 0.874503 0.874503 0.887639 0.887639 0.900971 0.900971 0.914503 0.914503 0.928237
0.928237 0.942177 0.942177 0.956326 0.956326 0.970686 0.970686 0.985261 0.985261 0.992604
0.992604 
nut 1 772 float
3.67046e-07 1.13979e-05 1.13979e-05 3.67046e-07 4.03538e-05 4.03538e-05 7.90506e-05 7.90506e-05 0.000122183 0.000122183 0.000167993
0.000167993 0.00021569 0.00021569 0.000264824 0.000264824 0.000315139 0.000315139 0.000366477 0.000366477 0.000418738
0.000418738 0.00047185 0.00047185 0.000525765 0.000525765 0.000580444 0.000580444 0.000635859 0.000635859 0.000691987
0.000691987 0.000748809 0.000748809 0.00080631 0.00080631 0.000864474 0.000864474 0.000923289 0.000923289 0.000982745
0.000982745 0.00104283 0.00104283 0.00110353 0.00110353 0.00116485 0.00116485 0.00122676 0.00122676 0.00128926
0.00128926 0.00135234 0.00135234 0.00141599 0.00141599 0.00148019 0.00148019 0.00154495 0.00154495 0.00161023
0.00161023 0.00167605 0.00167605 0.00174237 0.00174237 0.00180919 0.00180919 0.00187649 0.00187649 0.00194427
0.00194427 0.0020125 0.0020125 0.00208117 0.00208117 0.00215026 0.00215026 0.00221976 0.00221976 0.00228964
0.00228964 0.00235988 0.00235988 0.00243047 0.00243047 0.00250139 0.00250139 0.0025726 0.0025726 0.0026441
0.0026441 0.00271584 0.00271584 0.00278781 0.00278781 0.00285997 0.00285997 0.0029323 0.0029323 0.00300477
0.00300477 0.00307735 0.00307735 0.00315 0.00315 0.00322269 0.00322269 0.00329538 0.00329538 0.00336804
0.00336804 0.00344063 0.00344063 0.0035131 0.0035131 0.00358541 0.00358541 0.00365752 0.00365752 0.00372939
0.00372939 0.00380096 0.00380096 0.00387219 0.00387219 0.00394303 0.00394303 0.00401341 0.00401341 0.00408329
0.00408329 0.00415261 0.00415261 0.00422131 0.00422131 0.00428933 0.00428933 0.00435661 0.00435661 0.00442307
0.00442307 0.00448865 0.00448865 0.00455329 0.00455329 0.0046169 0.0046169 0.00467942 0.00467942 0.00474077
0.00474077 0.00480087 0.00480087 0.00485963 0.00485963 0.00491698 0.00491698 0.00497283 0.00497283 0.00502709
0.00502709 0.00507967 0.00507967 0.00513048 0.00513048 0.00517942 0.00517942 0.00522639 0.00522639 0.0052713
0.0052713 0.00531405 0.00531405 0.00535453 0.00535453 0.00539263 0.00539263 0.00542825 0.00542825 0.00546128
0.00546128 0.0054916 0.0054916 0.00551535 0.00551535 0.00552901 0.00552901 0.00553384 0.00553384 0.00553201
0.00553201 0.00552549 0.00552549 0.00551571 0.00551571 0.00550355 0.00550355 0.00548946 0.00548946 0.00547355
0.00547355 0.00545569 0.00545569 0.00543556 0.00543556 0.00541273 0.00541273 0.00538672 0.00538672 0.00535701
0.00535701 0.00532307 0.00532307 0.00528436 0.00528436 0.00524038 0.00524038 0.00519065 0.00519065 0.00513474
0.00513474 0.00507224 0.00507224 0.00500281 0.00500281 0.0049262 0.0049262 0.00484221 0.00484221 0.00475078
0.00475078 0.00465195 0.00465195 0.00454592 0.00454592 0.00443306 0.00443306 0.00431399 0.00431399 0.00418959
0.00418959 0.00406108 0.00406108 0.00393015 0.00393015 0.00379904 0.00379904 0.00367063 0.00367063 0.00354857
0.00354857 0.00343722 0.00343722 0.00334148 0.00334148 0.00326614 0.00326614 0.0032147 0.0032147 0.00318686
0.00318686 0.00317357 0.00317357 0.00314248 0.00314248 0.00303669 0.00303669 0.00287358 0.00287358 0.00270234
0.00270234 0.00252257 0.00252257 0.002334 0.002334 0.00213634 0.00213634 0.00192925 0.00192925 0.00171241
0.00171241 0.00148551 0.00148551 0.00124831 0.00124831 0.00100077 0.00100077 0.000743421 0.000743421 0.000480369
0.000480369 0.000247384 0.000247384 9.34029e-05 9.34029e-05 2.26422e-05 2.26422e-05 2.60942e-06 2.60942e-06 2.03375e-07
2.03375e-07 9.8497e-08 9.8497e-08 9.41455e-08 9.41455e-08 9.40312e-08 9.40312e-08 9.41579e-08 9.41579e-08 9.41605e-08
9.41605e-08 9.40321e-08 9.40321e-08 9.39955e-08 9.39955e-08 9.40714e-08 9.40714e-08 9.41567e-08 9.41567e-08 9.42121e-08
9.42121e-08 9.4164e-08 9.4164e-08 9.41606e-08 9.41606e-08 9.41325e-08 9.41325e-08 9.3998e-08 9.3998e-08 9.4071e-08
9.4071e-08 9.42078e-08 9.42078e-08 9.4215e-08 9.4215e-08 9.42159e-08 9.42159e-08 9.41349e-08 9.41349e-08 9.39948e-08
9.39948e-08 9.39863e-08 9.39863e-08 9.4123e-08 9.4123e-08 9.40788e-08 9.40788e-08 9.4077e-08 9.4077e-08 9.41582e-08
9.41582e-08 9.41115e-08 9.41115e-08 9.41612e-08 9.41612e-08 9.42141e-08 9.42141e-08 9.42161e-08 9.42161e-08 9.4134e-08
9.4134e-08 9.40473e-08 9.40473e-08 9.39891e-08 9.39891e-08 9.402e-08 9.402e-08 9.41065e-08 9.41065e-08 9.40784e-08
9.40784e-08 9.4043e-08 9.4043e-08 9.41248e-08 9.41248e-08 9.42129e-08 9.42129e-08 9.4164e-08 9.4164e-08 9.41114e-08
9.41114e-08 9.40776e-08 9.40776e-08 9.40433e-08 9.40433e-08 9.3988e-08 9.3988e-08 9.40197e-08 9.40197e-08 9.4107e-08
9.4107e-08 9.41614e-08 9.41614e-08 9.40776e-08 9.40776e-08 9.40753e-08 9.40753e-08 9.41274e-08 9.41274e-08 9.41292e-08
9.41292e-08 9.42138e-08 9.42138e-08 9.42159e-08 9.42159e-08 9.41313e-08 9.41313e-08 9.4077e-08 9.4077e-08 9.4024e-08
9.4024e-08 9.39364e-08 9.39364e-08 9.39837e-08 9.39837e-08 9.39838e-08 9.39838e-08 9.40715e-08 9.40715e-08 9.4213e-08
9.4213e-08 9.41304e-08 9.41304e-08 9.41291e-08 9.41291e-08 9.40766e-08 9.40766e-08 9.39873e-08 9.39873e-08 9.41245e-08
9.41245e-08 9.41296e-08 9.41296e-08 9.3989e-08 9.3989e-08 9.39316e-08 9.39316e-08 9.40707e-08 9.40707e-08 9.41272e-08
9.41272e-08 9.40757e-08 9.40757e-08 9.41616e-08 9.41616e-08 9.40758e-08 9.40758e-08 9.40219e-08 9.40219e-08 9.40212e-08
9.40212e-08 9.40213e-08 9.40213e-08 9.4021e-08 9.4021e-08 9.40212e-08 9.40212e-08 9.40747e-08 9.40747e-08 9.39859e-08
9.39859e-08 9.4019e-08 9.4019e-08 9.41089e-08 9.41089e-08 9.411e-08 9.411e-08 9.40225e-08 9.40225e-08 9.39321e-08
9.39321e-08 9.40712e-08 9.40712e-08 9.41276e-08 9.41276e-08 9.39859e-08 9.39859e-08 9.40715e-08 9.40715e-08 9.42154e-08
9.42154e-08 9.41291e-08 9.41291e-08 9.40748e-08 9.40748e-08 9.41625e-08 9.41625e-08 9.41282e-08 9.41282e-08 9.40746e-08
9.40746e-08 9.40205e-08 9.40205e-08 9.40204e-08 9.40204e-08 9.41623e-08 9.41623e-08 9.41634e-08 9.41634e-08 9.40744e-08
9.40744e-08 9.4127e-08 9.4127e-08 9.41632e-08 9.41632e-08 9.40747e-08 9.40747e-08 9.39838e-08 9.39838e-08 9.40718e-08
9.40718e-08 9.40737e-08 9.40737e-08 9.39838e-08 9.39838e-08 9.40721e-08 9.40721e-08 9.41626e-08 9.41626e-08 9.41275e-08
9.41275e-08 9.4074e-08 9.4074e-08 9.40734e-08 9.40734e-08 9.3983e-08 9.3983e-08 9.39818e-08 9.39818e-08 9.39818e-08
9.39818e-08 9.39814e-08 9.39814e-08 9.39815e-08 9.39815e-08 9.40719e-08 9.40719e-08 9.41262e-08 9.41262e-08 9.39826e-08
9.39826e-08 9.3928e-08 9.3928e-08 9.40715e-08 9.40715e-08 9.40727e-08 9.40727e-08 9.40729e-08 9.40729e-08 9.41627e-08
9.41627e-08 9.40196e-08 9.40196e-08 9.4019e-08 9.4019e-08 9.41625e-08 9.41625e-08 9.42166e-08 9.42166e-08 9.4127e-08
9.4127e-08 9.41265e-08 9.41265e-08 9.40724e-08 9.40724e-08 9.39282e-08 9.39282e-08 9.39273e-08 9.39273e-08 9.40711e-08
9.40711e-08 9.40721e-08 9.40721e-08 9.40721e-08 9.40721e-08 9.40718e-08 9.40718e-08 9.39814e-08 9.39814e-08 9.40344e-08
9.40344e-08 9.40345e-08 9.40345e-08 9.41251e-08 9.41251e-08 9.41626e-08 9.41626e-08 9.41091e-08 9.41091e-08 9.41623e-08
9.41623e-08 9.41259e-08 9.41259e-08 9.39812e-08 9.39812e-08 9.40171e-08 9.40171e-08 9.40715e-08 9.40715e-08 9.41252e-08
9.41252e-08 9.40714e-08 9.40714e-08 9.40177e-08 9.40177e-08 9.41616e-08 9.41616e-08 9.40714e-08 9.40714e-08 9.4071e-08
9.4071e-08 9.41616e-08 9.41616e-08 9.40175e-08 9.40175e-08 9.39261e-08 9.39261e-08 9.39794e-08 9.39794e-08 9.40704e-08
9.40704e-08 9.40708e-08 9.40708e-08 9.39797e-08 9.39797e-08 9.39792e-08 9.39792e-08 9.39791e-08 9.39791e-08 9.40162e-08
9.40162e-08 9.4161e-08 9.4161e-08 9.41613e-08 9.41613e-08 9.41612e-08 9.41612e-08 9.41241e-08 9.41241e-08 9.4124e-08
9.4124e-08 9.4161e-08 9.4161e-08 9.4161e-08 9.4161e-08 9.41238e-08 9.41238e-08 9.40329e-08 9.40329e-08 9.40325e-08
9.40325e-08 9.40695e-08 9.40695e-08 9.40157e-08 9.40157e-08 9.39784e-08 9.39784e-08 9.40692e-08 9.40692e-08 9.41065e-08
9.41065e-08 9.40695e-08 9.40695e-08 9.40693e-08 9.40693e-08 9.41601e-08 9.41601e-08 9.42139e-08 9.42139e-08 9.40691e-08
9.40691e-08 9.4015e-08 9.4015e-08 9.4106e-08 9.4106e-08 9.41061e-08 9.41061e-08 9.40149e-08 9.40149e-08 9.39774e-08
9.39774e-08 9.41222e-08 9.41222e-08 9.42133e-08 9.42133e-08 9.40684e-08 9.40684e-08 9.40682e-08 9.40682e-08 9.41592e-08
9.41592e-08 9.40684e-08 9.40684e-08 9.41219e-08 9.41219e-08 9.40679e-08 9.40679e-08 9.40678e-08 9.40678e-08 9.4159e-08
9.4159e-08 9.4159e-08 9.4159e-08 9.41217e-08 9.41217e-08 9.39765e-08 9.39765e-08 9.40673e-08 9.40673e-08 9.42124e-08
9.42124e-08 9.42125e-08 9.42125e-08 9.41214e-08 9.41214e-08 9.40302e-08 9.40302e-08 9.40673e-08 9.40673e-08 9.41046e-08
9.41046e-08 9.41046e-08 9.41046e-08 9.40132e-08 9.40132e-08 9.39758e-08 9.39758e-08 9.41208e-08 9.41208e-08 9.41209e-08
9.41209e-08 9.39757e-08 9.39757e-08 9.39755e-08 9.39755e-08 9.40668e-08 9.40668e-08 9.41042e-08 9.41042e-08 9.41042e-08
9.41042e-08 9.40128e-08 9.40128e-08 9.40665e-08 9.40665e-08 9.42116e-08 9.42116e-08 9.41205e-08 9.41205e-08 9.39752e-08
9.39752e-08 9.39211e-08 9.39211e-08 9.3921e-08 9.3921e-08 9.40124e-08 9.40124e-08 9.41039e-08 9.41039e-08 9.40665e-08
9.40665e-08 9.40665e-08 9.40665e-08 9.41576e-08 9.41576e-08 9.42115e-08 9.42115e-08 9.40998e-08 9.40998e-08 9.3988e-08
9.3988e-08 
Cz 1 772 float
0.05 0.05 0.05 0.05 0.05 0.05 0.05 0.05 0.05 0.05 0.05
0.05 0.05 0.05 0.05 0.05 0.05 0.05 0.05 0.05 0.05
0.05 0.05 0.05 0.05 0.05 0.05 0.05 0.05 0.05 0.05
0.05 0.05 0.05 0.05 0.05 0.05 0.05 0.05 0.05 0.05
0.05 0.05 0.05 0.05 0.05 0.05 0.05 0.05 0.05 0.05
0.05 0.05 0.05 0.05 0.05 0.05 0.05 0.05 0.05 0.05
0.05 0.05 0.05 0.05 0.05 0.05 0.05 0.05 0.05 0.05
0.05 0.05 0.05 0.05 0.05 0.05 0.05 0.05 0.05 0.05
0.05 0.05 0.05 0.05 0.05 0.05 0.05 0.05 0.05 0.05
0.05 0.05 0.05 0.05 0.05 0.05 0.05 0.05 0.05 0.05
0.05 0.05 0.05 0.05 0.05 0.05 0.05 0.05 0.05 0.05
0.05 0.05 0.05 0.05 0.05 0.05 0.05 0.05 0.05 0.05
0.05 0.05 0.05 0.05 0.05 0.05 0.05 0.05 0.05 0.05
0.05 0.05 0.05 0.05 0.05 0.05 0.05 0.05 0.05 0.05
0.05 0.05 0.05 0.05 0.05 0.05 0.05 0.05 0.05 0.05
0.05 0.05 0.05 0.05 0.05 0.05 0.05 0.05 0.05 0.05
0.05 0.05 0.05 0.05 0.05 0.05 0.05 0.05 0.05 0.05
0.05 0.05 0.05 0.05 0.05 0.05 0.05 0.05 0.05 0.05
0.05 0.05 0.05 0.05 0.05 0.05 0.05 0.05 0.05 0.05
0.05 0.05 0.05 0.05 0.05 0.05 0.05 0.05 0.05 0.05
0.05 0.05 0.05 0.05 0.05 0.05 0.05 0.05 0.05 0.05
0.05 0.05 0.05 0.05 0.05 0.05 0.05 0.05 0.05 0.05
0.05 0.05 0.05 0.05 0.05 0.05 0.05 0.05 0.05 0.05
0.05 0.05 0.05 0.05 0.05 0.05 0.05 0.05 0.05 0.05
0.05 0.05 0.05 0.05 0.05 0.05 0.05 0.05 0.05 0.05
0.05 0.05 0.05 0.05 0.05 0.05 0.05 0.05 0.05 0.05
0.05 0.05 0.05 0.05 0.05 0.05 0.05 0.05 0.05 0.05
0.05 0.05 0.05 0.05 0.05 0.05 0.05 0.05 0.05 0.05
0.05 0.05 0.05 0.05 0.05 0.05 0.05 0.05 0.05 0.05
0.05 0.05 0.05 0.05 0.05 0.05 0.05 0.05 0.05 0.05
0.05 0.05 0.05 0.05 0.05 0.05 0.05 0.05 0.05 0.05
0.05 0.05 0.05 0.05 0.05 0.05 0.05 0.05 0.05 0.05
0.05 0.05 0.05 0.05 0.05 0.05 0.05 0.05 0.05 0.05
0.05 0.05 0.05 0.05 0.05 0.05 0.05 0.05 0.05 0.05
0.05 0.05 0.05 0.05 0.05 0.05 0.05 0.05 0.05 0.05
0.05 0.05 0.05 0.05 0.05 0.05 0.05 0.05 0.05 0.05
0.05 0.05 0.05 0.05 0.05 0.05 0.05 0.05 0.05 0.05
0.05 0.05 0.05 0.05 0.05 0.05 0.05 0.05 0.05 0.05
0.05 0.05 0.05 0.05 0.05 0.05 0.05 0.05 0.05 0.05
0.05 0.05 0.05 0.05 0.05 0.05 0.05 0.05 0.05 0.05
0.05 0.05 0.05 0.05 0.05 0.05 0.05 0.05 0.05 0.05
0.05 0.05 0.05 0.05 0.05 0.05 0.05 0.05 0.05 0.05
0.05 0.05 0.05 0.05 0.05 0.05 0.05 0.05 0.05 0.05
0.05 0.05 0.05 0.05 0.05 0.05 0.05 0.05 0.05 0.05
0.05 0.05 0.05 0.05 0.05 0.05 0.05 0.05 0.05 0.05
0.05 0.05 0.05 0.05 0.05 0.05 0.05 0.05 0.05 0.05
0.05 0.05 0.05 0.05 0.05 0.05 0.05 0.05 0.05 0.05
0.05 0.05 0.05 0.05 0.05 0.05 0.05 0.05 0.05 0.05
0.05 0.05 0.05 0.05 0.05 0.05 0.05 0.05 0.05 0.05
0.05 0.05 0.05 0.05 0.05 0.05 0.05 0.05 0.05 0.05
0.05 0.05 0.05 0.05 0.05 0.05 0.05 0.05 0.05 0.05
0.05 0.05 0.05 0.05 0.05 0.05 0.05 0.05 0.05 0.05
0.05 0.05 0.05 0.05 0.05 0.05 0.05 0.05 0.05 0.05
0.05 0.05 0.05 0.05 0.05 0.05 0.05 0.05 0.05 0.05
0.05 0.05 0.05 0.05 0.05 0.05 0.05 0.05 0.05 0.05
0.05 0.05 0.05 0.05 0.05 0.05 0.05 0.05 0.05 0.05
0.05 0.05 0.05 0.05 0.05 0.05 0.05 0.05 0.05 0.05
0.05 0.05 0.05 0.05 0.05 0.05 0.05 0.05 0.05 0.05
0.05 0.05 0.05 0.05 0.05 0.05 0.05 0.05 0.05 0.05
0.05 0.05 0.05 0.05 0.05 0.05 0.05 0.05 0.05 0.05
0.05 0.05 0.05 0.05 0.05 0.05 0.05 0.05 0.05 0.05
0.05 0.05 0.05 0.05 0.05 0.05 0.05 0.05 0.05 0.05
0.05 0.05 0.05 0.05 0.05 0.05 0.05 0.05 0.05 0.05
0.05 0.05 0.05 0.05 0.05 0.05 0.05 0.05 0.05 0.05
0.05 0.05 0.05 0.05 0.05 0.05 0.05 0.05 0.05 0.05
0.05 0.05 0.05 0.05 0.05 0.05 0.05 0.05 0.05 0.05
0.05 0.05 0.05 0.05 0.05 0.05 0.05 0.05 0.05 0.05
0.05 0.05 0.05 0.05 0.05 0.05 0.05 0.05 0.05 0.05
0.05 0.05 0.05 0.05 0.05 0.05 0.05 0.05 0.05 0.05
0.05 0.05 0.05 0.05 0.05 0.05 0.05 0.05 0.05 0.05
0.05 0.05 0.05 0.05 0.05 0.05 0.05 0.05 0.05 0.05
0.05 0.05 0.05 0.05 0.05 0.05 0.05 0.05 0.05 0.05
0.05 0.05 0.05 0.05 0.05 0.05 0.05 0.05 0.05 0.05
0.05 0.05 0.05 0.05 0.05 0.05 0.05 0.05 0.05 0.05
0.05 0.05 0.05 0.05 0.05 0.05 0.05 0.05 0.05 0.05
0.05 0.05 0.05 0.05 0.05 0.05 0.05 0.05 0.05 0.05
0.05 0.05 0.05 0.05 0.05 0.05 0.05 0.05 0.05 0.05
0.05 
p 1 772 float
0 0 0 0 0 0 0 0 0 0 0
0 0 0 0 0 0 0 0 0 0
0 0 0 0 0 0 0 0 0 0
0 0 0 0 0 0 0 0 0 0
0 0 0 0 0 0 0 0 0 0
0 0 0 0 0 0 0 0 0 0
0 0 0 0 0 0 0 0 0 0
0 0 0 0 0 0 0 0 0 0
0 0 0 0 0 0 0 0 0 0
0 0 0 0 0 0 0 0 0 0
0 0 0 0 0 0 0 0 0 0
0 0 0 0 0 0 0 0 0 0
0 0 0 0 0 0 0 0 0 0
0 0 0 0 0 0 0 0 0 0
0 0 0 0 0 0 0 0 0 0
0 0 0 0 0 0 0 0 0 0
0 0 0 0 0 0 0 0 0 0
0 0 0 0 0 0 0 0 0 0
0 0 0 0 0 0 0 0 0 0
0 0 0 0 0 0 0 0 0 0
0 0 0 0 0 0 0 0 0 0
0 0 0 0 0 0 0 0 0 0
0 0 0 0 0 0 0 0 0 0
0 0 0 0 0 0 0 0 0 0
0 0 0 0 0 0 0 0 0 0
0 0 0 0 0 0 0 0 0 0
0 0 0 0 0 0 0 0 0 0
0 0 0 0 0 0 0 0 0 0
0 0 0 0 0 0 0 0 0 0
0 0 0 0 0 0 0 0 0 0
0 0 0 0 0 0 0 0 0 0
0 0 0 0 0 0 0 0 0 0
0 0 0 0 0 0 0 0 0 0
0 0 0 0 0 0 0 0 0 0
0 0 0 0 0 0 0 0 0 0
0 0 0 0 0 0 0 0 0 0
0 0 0 0 0 0 0 0 0 0
0 0 0 0 0 0 0 0 0 0
0 0 0 0 0 0 0 0 0 0
0 0 0 0 0 0 0 0 0 0
0 0 0 0 0 0 0 0 0 0
0 0 0 0 0 0 0 0 0 0
0 0 0 0 0 0 0 0 0 0
0 0 0 0 0 0 0 0 0 0
0 0 0 0 0 0 0 0 0 0
0 0 0 0 0 0 0 0 0 0
0 0 0 0 0 0 0 0 0 0
0 0 0 0 0 0 0 0 0 0
0 0 0 0 0 0 0 0 0 0
0 0 0 0 0 0 0 0 0 0
0 0 0 0 0 0 0 0 0 0
0 0 0 0 0 0 0 0 0 0
0 0 0 0 0 0 0 0 0 0
0 0 0 0 0 0 0 0 0 0
0 0 0 0 0 0 0 0 0 0
0 0 0 0 0 0 0 0 0 0
0 0 0 0 0 0 0 0 0 0
0 0 0 0 0 0 0 0 0 0
0 0 0 0 0 0 0 0 0 0
0 0 0 0 0 0 0 0 0 0
0 0 0 0 0 0 0 0 0 0
0 0 0 0 0 0 0 0 0 0
0 0 0 0 0 0 0 0 0 0
0 0 0 0 0 0 0 0 0 0
0 0 0 0 0 0 0 0 0 0
0 0 0 0 0 0 0 0 0 0
0 0 0 0 0 0 0 0 0 0
0 0 0 0 0 0 0 0 0 0
0 0 0 0 0 0 0 0 0 0
0 0 0 0 0 0 0 0 0 0
0 0 0 0 0 0 0 0 0 0
0 0 0 0 0 0 0 0 0 0
0 0 0 0 0 0 0 0 0 0
0 0 0 0 0 0 0 0 0 0
0 0 0 0 0 0 0 0 0 0
0 0 0 0 0 0 0 0 0 0
0 0 0 0 0 0 0 0 0 0
0 
k 1 772 float
0.672741 6.45651 6.45651 0.672741 14.0676 14.0676 16.5132 16.5132 17.4174 17.4174 17.8678
17.8678 18.1379 18.1379 18.3161 18.3161 18.441 18.441 18.5321 18.5321 18.6
18.6 18.6515 18.6515 18.6907 18.6907 18.7204 18.7204 18.7428 18.7428 18.7591
18.7591 18.7704 18.7704 18.7776 18.7776 18.7812 18.7812 18.7818 18.7818 18.7796
18.7796 18.775 18.775 18.7682 18.7682 18.7595 18.7595 18.7489 18.7489 18.7367
18.7367 18.723 18.723 18.7078 18.7078 18.6912 18.6912 18.6733 18.6733 18.6541
18.6541 18.6338 18.6338 18.6123 18.6123 18.5896 18.5896 18.5659 18.5659 18.5411
18.5411 18.5152 18.5152 18.4883 18.4883 18.4603 18.4603 18.4314 18.4314 18.4014
18.4014 18.3704 18.3704 18.3384 18.3384 18.3054 18.3054 18.2715 18.2715 18.2365
18.2365 18.2004 18.2004 18.1634 18.1634 18.1254 18.1254 18.0863 18.0863 18.0461
18.0461 18.0049 18.0049 17.9627 17.9627 17.9193 17.9193 17.8749 17.8749 17.8293
17.8293 17.7826 17.7826 17.7348 17.7348 17.6858 17.6858 17.6356 17.6356 17.5842
17.5842 17.5316 17.5316 17.4777 17.4777 17.4226 17.4226 17.3662 17.3662 17.3084
17.3084 17.2493 17.2493 17.1888 17.1888 17.1269 17.1269 17.0636 17.0636 16.9988
16.9988 16.9325 16.9325 16.8647 16.8647 16.7953 16.7953 16.7243 16.7243 16.6517
16.6517 16.5774 16.5774 16.5014 16.5014 16.4236 16.4236 16.344 16.344 16.2626
16.2626 16.1792 16.1792 16.094 16.094 16.0067 16.0067 15.9175 15.9175 15.8261
15.8261 15.7326 15.7326 15.637 15.637 15.539 15.539 15.4388 15.4388 15.3362
15.3362 15.2312 15.2312 15.1237 15.1237 15.0134 15.0134 14.9002 14.9002 14.7837
14.7837 14.6637 14.6637 14.5401 14.5401 14.4124 14.4124 14.2807 14.2807 14.1447
14.1447 14.0042 14.0042 13.859 13.859 13.709 13.709 13.554 13.554 13.3939
13.3939 13.2283 13.2283 13.0572 13.0572 12.8802 12.8802 12.697 12.697 12.5074
12.5074 12.311 12.311 12.1074 12.1074 11.8963 11.8963 11.6771 11.6771 11.4494
11.4494 11.2126 11.2126 10.9662 10.9662 10.7096 10.7096 10.4419 10.4419 10.1627
10.1627 9.87107 9.87107 9.56648 9.56648 9.24837 9.24837 8.91646 8.91646 8.5709
8.5709 8.21248 8.21248 7.84294 7.84294 7.46506 7.46506 7.0828 7.0828 6.70101
6.70101 6.32414 6.32414 5.95397 5.95397 5.58781 5.58781 5.22035 5.22035 4.84833
4.84833 4.47084 4.47084 4.08724 4.08724 3.69689 3.69689 3.29916 3.29916 2.89347
2.89347 2.47938 2.47938 2.05658 2.05658 1.62505 1.62505 1.18573 1.18573 0.744354
0.744354 0.350079 0.350079 0.101567 0.101567 0.0146026 0.0146026 0.000981059 0.000981059 7.05064e-05
7.05064e-05 3.40669e-05 3.40669e-05 3.25606e-05 3.25606e-05 3.25209e-05 3.25209e-05 3.25477e-05 3.25477e-05 3.25481e-05
3.25481e-05 3.25206e-05 3.25206e-05 3.24914e-05 3.24914e-05 3.25172e-05 3.25172e-05 3.25467e-05 3.25467e-05 3.25484e-05
3.25484e-05 3.25483e-05 3.25483e-05 3.2548e-05 3.2548e-05 3.25208e-05 3.25208e-05 3.24909e-05 3.24909e-05 3.2517e-05
3.2517e-05 3.25468e-05 3.25468e-05 3.25484e-05 3.25484e-05 3.25484e-05 3.25484e-05 3.25205e-05 3.25205e-05 3.24899e-05
3.24899e-05 3.24877e-05 3.24877e-05 3.25173e-05 3.25173e-05 3.25188e-05 3.25188e-05 3.25189e-05 3.25189e-05 3.25471e-05
3.25471e-05 3.25483e-05 3.25483e-05 3.25486e-05 3.25486e-05 3.25485e-05 3.25485e-05 3.25484e-05 3.25484e-05 3.252e-05
3.252e-05 3.24901e-05 3.24901e-05 3.24878e-05 3.24878e-05 3.25167e-05 3.25167e-05 3.25472e-05 3.25472e-05 3.25199e-05
3.25199e-05 3.24895e-05 3.24895e-05 3.2517e-05 3.2517e-05 3.25473e-05 3.25473e-05 3.25484e-05 3.25484e-05 3.25484e-05
3.25484e-05 3.25196e-05 3.25196e-05 3.24894e-05 3.24894e-05 3.24873e-05 3.24873e-05 3.25167e-05 3.25167e-05 3.25473e-05
3.25473e-05 3.25482e-05 3.25482e-05 3.2519e-05 3.2519e-05 3.25183e-05 3.25183e-05 3.25184e-05 3.25184e-05 3.25183e-05
3.25183e-05 3.25476e-05 3.25476e-05 3.25483e-05 3.25483e-05 3.25189e-05 3.25189e-05 3.25182e-05 3.25182e-05 3.25183e-05
3.25183e-05 3.24882e-05 3.24882e-05 3.24866e-05 3.24866e-05 3.24864e-05 3.24864e-05 3.25168e-05 3.25168e-05 3.25477e-05
3.25477e-05 3.25186e-05 3.25186e-05 3.25181e-05 3.25181e-05 3.25181e-05 3.25181e-05 3.24876e-05 3.24876e-05 3.25168e-05
3.25168e-05 3.25181e-05 3.25181e-05 3.24877e-05 3.24877e-05 3.24862e-05 3.24862e-05 3.25166e-05 3.25166e-05 3.25177e-05
3.25177e-05 3.25176e-05 3.25176e-05 3.25476e-05 3.25476e-05 3.25179e-05 3.25179e-05 3.25174e-05 3.25174e-05 3.25173e-05
3.25173e-05 3.25173e-05 3.25173e-05 3.25172e-05 3.25172e-05 3.25172e-05 3.25172e-05 3.25175e-05 3.25175e-05 3.24866e-05
3.24866e-05 3.25162e-05 3.25162e-05 3.25474e-05 3.25474e-05 3.25478e-05 3.25478e-05 3.25175e-05 3.25175e-05 3.24861e-05
3.24861e-05 3.25161e-05 3.25161e-05 3.25171e-05 3.25171e-05 3.24861e-05 3.24861e-05 3.25159e-05 3.25159e-05 3.25473e-05
3.25473e-05 3.25171e-05 3.25171e-05 3.25167e-05 3.25167e-05 3.25471e-05 3.25471e-05 3.25169e-05 3.25169e-05 3.25165e-05
3.25165e-05 3.25162e-05 3.25162e-05 3.25161e-05 3.25161e-05 3.25469e-05 3.25469e-05 3.25471e-05 3.25471e-05 3.25163e-05
3.25163e-05 3.25161e-05 3.25161e-05 3.25466e-05 3.25466e-05 3.25161e-05 3.25161e-05 3.24847e-05 3.24847e-05 3.2515e-05
3.2515e-05 3.25155e-05 3.25155e-05 3.24844e-05 3.24844e-05 3.25149e-05 3.25149e-05 3.25461e-05 3.25461e-05 3.25155e-05
3.25155e-05 3.25151e-05 3.25151e-05 3.25149e-05 3.25149e-05 3.24836e-05 3.24836e-05 3.24831e-05 3.24831e-05 3.2483e-05
3.2483e-05 3.24828e-05 3.24828e-05 3.24827e-05 3.24827e-05 3.25137e-05 3.25137e-05 3.2514e-05 3.2514e-05 3.24826e-05
3.24826e-05 3.24821e-05 3.24821e-05 3.25133e-05 3.25133e-05 3.25135e-05 3.25135e-05 3.25134e-05 3.25134e-05 3.25443e-05
3.25443e-05 3.25132e-05 3.25132e-05 3.25129e-05 3.25129e-05 3.25439e-05 3.25439e-05 3.2544e-05 3.2544e-05 3.25128e-05
3.25128e-05 3.25124e-05 3.25124e-05 3.2512e-05 3.2512e-05 3.24805e-05 3.24805e-05 3.24801e-05 3.24801e-05 3.25113e-05
3.25113e-05 3.25114e-05 3.25114e-05 3.25112e-05 3.25112e-05 3.25109e-05 3.25109e-05 3.24795e-05 3.24795e-05 3.24792e-05
3.24792e-05 3.2479e-05 3.2479e-05 3.25101e-05 3.25101e-05 3.25413e-05 3.25413e-05 3.25411e-05 3.25411e-05 3.2541e-05
3.2541e-05 3.25097e-05 3.25097e-05 3.24778e-05 3.24778e-05 3.25085e-05 3.25085e-05 3.25088e-05 3.25088e-05 3.25086e-05
3.25086e-05 3.25082e-05 3.25082e-05 3.25079e-05 3.25079e-05 3.2539e-05 3.2539e-05 3.25076e-05 3.25076e-05 3.25072e-05
3.25072e-05 3.25383e-05 3.25383e-05 3.25067e-05 3.25067e-05 3.24749e-05 3.24749e-05 3.24747e-05 3.24747e-05 3.25058e-05
3.25058e-05 3.25057e-05 3.25057e-05 3.2474e-05 3.2474e-05 3.24736e-05 3.24736e-05 3.24733e-05 3.24733e-05 3.25043e-05
3.25043e-05 3.25357e-05 3.25357e-05 3.25355e-05 3.25355e-05 3.25352e-05 3.25352e-05 3.25036e-05 3.25036e-05 3.25033e-05
3.25033e-05 3.25343e-05 3.25343e-05 3.2534e-05 3.2534e-05 3.25025e-05 3.25025e-05 3.24708e-05 3.24708e-05 3.24703e-05
3.24703e-05 3.25013e-05 3.25013e-05 3.2501e-05 3.2501e-05 3.24694e-05 3.24694e-05 3.25005e-05 3.25005e-05 3.25315e-05
3.25315e-05 3.25e-05 3.25e-05 3.24997e-05 3.24997e-05 3.25307e-05 3.25307e-05 3.25305e-05 3.25305e-05 3.24987e-05
3.24987e-05 3.24983e-05 3.24983e-05 3.25294e-05 3.25294e-05 3.25292e-05 3.25292e-05 3.24974e-05 3.24974e-05 3.24657e-05
3.24657e-05 3.24969e-05 3.24969e-05 3.25281e-05 3.25281e-05 3.24963e-05 3.24963e-05 3.24959e-05 3.24959e-05 3.25271e-05
3.25271e-05 3.24955e-05 3.24955e-05 3.24952e-05 3.24952e-05 3.24948e-05 3.24948e-05 3.24945e-05 3.24945e-05 3.25257e-05
3.25257e-05 3.25255e-05 3.25255e-05 3.24938e-05 3.24938e-05 3.24619e-05 3.24619e-05 3.2493e-05 3.2493e-05 3.25244e-05
3.25244e-05 3.25242e-05 3.25242e-05 3.24925e-05 3.24925e-05 3.24608e-05 3.24608e-05 3.24919e-05 3.24919e-05 3.25231e-05
3.25231e-05 3.25229e-05 3.25229e-05 3.24911e-05 3.24911e-05 3.24594e-05 3.24594e-05 3.24908e-05 3.24908e-05 3.24906e-05
3.24906e-05 3.24588e-05 3.24588e-05 3.24586e-05 3.24586e-05 3.24899e-05 3.24899e-05 3.25212e-05 3.25212e-05 3.2521e-05
3.2521e-05 3.24893e-05 3.24893e-05 3.24892e-05 3.24892e-05 3.25207e-05 3.25207e-05 3.24891e-05 3.24891e-05 3.24573e-05
3.24573e-05 3.24569e-05 3.24569e-05 3.24568e-05 3.24568e-05 3.24883e-05 3.24883e-05 3.25198e-05 3.25198e-05 3.24884e-05
3.24884e-05 3.24883e-05 3.24883e-05 3.25197e-05 3.25197e-05 3.25198e-05 3.25198e-05 3.24867e-05 3.24867e-05 3.24537e-05
3.24537e-05 
omega 1 772 float
1.83285e+06 1.1893e+06 1.1893e+06 1.83285e+06 409241 409241 222180 222180 147049 147049 108335
108335 85112.8 85112.8 69753.5 69753.5 58887.3 58887.3 50814.6 50814.6 44591.4
44591.4 39653.2 39653.2 35642.8 35642.8 32323.6 32323.6 29532.4 29532.4 27153.8
27153.8 25103.4 25103.4 23318.2 23318.2 21750.5 21750.5 20363.1 20363.1 19127.1
19127.1 18019.1 18019.1 17020.5 17020.5 16116.1 16116.1 15293.3 15293.3 14541.7
14541.7 13852.6 13852.6 13218.7 13218.7 12633.6 12633.6 12092.2 12092.2 11589.7
11589.7 11122.1 11122.1 10686.2 10686.2 10278.8 10278.8 9897.24 9897.24 9539.29
9539.29 9202.86 9202.86 8886.14 8886.14 8587.49 8587.49 8305.48 8305.48 8038.8
8038.8 7786.29 7786.29 7546.9 7546.9 7319.68 7319.68 7103.78 7103.78 6898.4
6898.4 6702.86 6702.86 6516.48 6516.48 6338.7 6338.7 6168.96 6168.96 6006.77
6006.77 5851.68 5851.68 5703.26 5703.26 5561.14 5561.14 5424.95 5424.95 5294.36
5294.36 5169.07 5169.07 5048.8 5048.8 4933.28 4933.28 4822.27 4822.27 4715.54
4715.54 4612.88 4612.88 4514.1 4514.1 4419 4419 4327.43 4327.43 4239.21
4239.21 4154.19 4154.19 4072.24 4072.24 3993.22 3993.22 3917.01 3917.01 3843.49
3843.49 3772.55 3772.55 3704.09 3704.09 3638.01 3638.01 3574.22 3574.22 3512.64
3512.64 3453.18 3453.18 3395.77 3395.77 3340.33 3340.33 3286.8 3286.8 3235.12
3235.12 3185.22 3185.22 3137.05 3137.05 3090.56 3090.56 3045.69 3045.69 3002.41
3002.41 2960.65 2960.65 2920.4 2920.4 2881.6 2881.6 2844.22 2844.22 2808.22
2808.22 2773.59 2773.59 2740.27 2740.27 2708.21 2708.21 2677.33 2677.33 2647.56
2647.56 2618.83 2618.83 2591.09 2591.09 2564.3 2564.3 2538.41 2538.41 2513.38
2513.38 2489.18 2489.18 2465.78 2465.78 2443.14 2443.14 2421.23 2421.23 2400.03
2400.03 2379.49 2379.49 2359.59 2359.59 2340.28 2340.28 2321.54 2321.54 2303.32
2303.32 2285.58 2285.58 2268.25 2268.25 2251.29 2251.29 2234.64 2234.64 2218.21
2218.21 2201.92 2201.92 2185.69 2185.69 2169.4 2169.4 2152.92 2152.92 2136.11
2136.11 2118.81 2118.81 2100.85 2100.85 2082.02 2082.02 2062.12 2062.12 2040.98
2040.98 2018.45 2018.45 1994.48 1994.48 1969.19 1969.19 1942.9 1942.9 1916.2
1916.2 1889.8 1889.8 1864.25 1864.25 1839.79 1839.79 1816.34 1816.34 1793.76
1793.76 1771.94 1771.94 1750.74 1750.74 1730 1730 1709.52 1709.52 1689.05
1689.05 1668.22 1668.22 1646.39 1646.39 1622.15 1622.15 1591.92 1591.92 1540.02
1540.02 1352.9 1352.9 938.937 938.937 527.608 527.608 362.358 362.358 346.415
346.415 345.867 345.867 345.854 345.854 345.852 345.852 345.671 345.671 345.667
345.667 345.846 345.846 345.67 345.67 345.666 345.666 345.665 345.665 345.48
345.48 345.655 345.655 345.665 345.665 345.479 345.479 345.655 345.655 345.665
345.665 345.479 345.479 345.469 345.469 345.466 345.466 345.467 345.467 345.656
345.656 345.665 345.665 345.477 345.477 345.656 345.656 345.663 345.663 345.664
345.664 345.848 345.848 345.669 345.669 345.474 345.474 345.465 345.465 345.465
345.465 345.466 345.466 345.655 345.655 345.849 345.849 345.855 345.855 345.668
345.668 345.475 345.475 345.466 345.466 345.466 345.466 345.657 345.657 345.85
345.85 345.667 345.667 345.473 345.473 345.654 345.654 345.85 345.85 345.855
345.855 345.664 345.664 345.662 345.662 345.663 345.663 345.472 345.472 345.465
345.465 345.465 345.465 345.465 345.465 345.464 345.464 345.656 345.656 345.851
345.851 345.853 345.853 345.662 345.662 345.66 345.66 345.661 345.661 345.469
345.469 345.463 345.463 345.462 345.462 345.655 345.655 345.66 345.66 345.466
345.466 345.461 345.461 345.655 345.655 345.849 345.849 345.661 345.661 345.466
345.466 345.654 345.654 345.657 345.657 345.657 345.657 345.849 345.849 345.851
345.851 345.85 345.85 345.851 345.851 345.85 345.85 345.656 345.656 345.655
345.655 345.847 345.847 345.848 345.848 345.848 345.848 345.848 345.848 345.847
345.847 345.654 345.654 345.458 345.458 345.648 345.648 345.652 345.652 345.456
345.456 345.452 345.452 345.647 345.647 345.648 345.648 345.453 345.453 345.645
345.645 345.841 345.841 345.841 345.841 345.647 345.647 345.645 345.645 345.645
345.645 345.449 345.449 345.64 345.64 345.642 345.642 345.641 345.641 345.64
345.64 345.639 345.639 345.639 345.639 345.638 345.638 345.637 345.637 345.441
345.441 345.633 345.633 345.634 345.634 345.633 345.633 345.632 345.632 345.631
345.631 345.63 345.63 345.629 345.629 345.627 345.627 345.43 345.43 345.624
345.624 345.819 345.819 345.623 345.623 345.621 345.621 345.62 345.62 345.618
345.618 345.813 345.813 345.812 345.812 345.615 345.615 345.417 345.417 345.414
345.414 345.412 345.412 345.607 345.607 345.801 345.801 345.8 345.8 345.603
345.603 345.601 345.601 345.599 345.599 345.597 345.597 345.595 345.595 345.397
345.397 345.395 345.395 345.393 345.393 345.586 345.586 345.781 345.781 345.584
345.584 345.385 345.385 345.578 345.578 345.773 345.773 345.575 345.575 345.376
345.376 345.569 345.569 345.764 345.764 345.566 345.566 345.563 345.563 345.561
345.561 345.558 345.558 345.752 345.752 345.75 345.75 345.551 345.551 345.548
345.548 345.545 345.545 345.543 345.543 345.54 345.54 345.537 345.537 345.731
345.731 345.533 345.533 345.529 345.529 345.526 345.526 345.327 345.327 345.324
345.324 345.518 345.518 345.515 345.515 345.316 345.316 345.313 345.313 345.31
345.31 345.503 345.503 345.697 345.697 345.498 345.498 345.495 345.495 345.688
345.688 345.489 345.489 345.486 345.486 345.483 345.483 345.284 345.284 345.477
345.477 345.671 345.671 345.668 345.668 345.665 345.665 345.662 345.662 345.463
345.463 345.263 345.263 345.26 345.26 345.454 345.454 345.451 345.451 345.448
345.448 345.445 345.445 345.246 345.246 345.44 345.44 345.437 345.437 345.434
345.434 345.432 345.432 345.232 345.232 345.426 345.426 345.424 345.424 345.224
345.224 345.222 345.222 345.219 345.219 345.217 345.217 345.411 345.411 345.605
345.605 345.603 345.603 345.601 345.601 345.402 345.402 345.203 345.203 345.201
345.201 345.396 345.396 345.394 345.394 345.392 345.392 345.587 345.587 345.585
345.585 345.584 345.584 345.385 345.385 345.187 345.187 345.186 345.186 345.381
345.381 345.577 345.577 345.576 345.576 345.575 345.575 345.574 345.574 345.377
345.377 345.376 345.376 345.375 345.375 345.178 345.178 345.237 345.237 345.296
345.296 
Cx 1 772 float
2 2 2 2 2 2 2 2 2 2 2
2 2 2 2 2 2 2 2 2 2
2 2 2 2 2 2 2 2 2 2
2 2 2 2 2 2 2 2 2 2
2 2 2 2 2 2 2 2 2 2
2 2 2 2 2 2 2 2 2 2
2 2 2 2 2 2 2 2 2 2
2 2 2 2 2 2 2 2 2 2
2 2 2 2 2 2 2 2 2 2
2 2 2 2 2 2 2 2 2 2
2 2 2 2 2 2 2 2 2 2
2 2 2 2 2 2 2 2 2 2
2 2 2 2 2 2 2 2 2 2
2 2 2 2 2 2 2 2 2 2
2 2 2 2 2 2 2 2 2 2
2 2 2 2 2 2 2 2 2 2
2 2 2 2 2 2 2 2 2 2
2 2 2 2 2 2 2 2 2 2
2 2 2 2 2 2 2 2 2 2
2 2 2 2 2 2 2 2 2 2
2 2 2 2 2 2 2 2 2 2
2 2 2 2 2 2 2 2 2 2
2 2 2 2 2 2 2 2 2 2
2 2 2 2 2 2 2 2 2 2
2 2 2 2 2 2 2 2 2 2
2 2 2 2 2 2 2 2 2 2
2 2 2 2 2 2 2 2 2 2
2 2 2 2 2 2 2 2 2 2
2 2 2 2 2 2 2 2 2 2
2 2 2 2 2 2 2 2 2 2
2 2 2 2 2 2 2 2 2 2
2 2 2 2 2 2 2 2 2 2
2 2 2 2 2 2 2 2 2 2
2 2 2 2 2 2 2 2 2 2
2 2 2 2 2 2 2 2 2 2
2 2 2 2 2 2 2 2 2 2
2 2 2 2 2 2 2 2 2 2
2 2 2 2 2 2 2 2 2 2
2 2 2 2 2 2 2 2 2 2
2 2 2 2 2 2 2 2 2 2
2 2 2 2 2 2 2 2 2 2
2 2 2 2 2 2 2 2 2 2
2 2 2 2 2 2 2 2 2 2
2 2 2 2 2 2 2 2 2 2
2 2 2 2 2 2 2 2 2 2
2 2 2 2 2 2 2 2 2 2
2 2 2 2 2 2 2 2 2 2
2 2 2 2 2 2 2 2 2 2
2 2 2 2 2 2 2 2 2 2
2 2 2 2 2 2 2 2 2 2
2 2 2 2 2 2 2 2 2 2
2 2 2 2 2 2 2 2 2 2
2 2 2 2 2 2 2 2 2 2
2 2 2 2 2 2 2 2 2 2
2 2 2 2 2 2 2 2 2 2
2 2 2 2 2 2 2 2 2 2
2 2 2 2 2 2 2 2 2 2
2 2 2 2 2 2 2 2 2 2
2 2 2 2 2 2 2 2 2 2
2 2 2 2 2 2 2 2 2 2
2 2 2 2 2 2 2 2 2 2
2 2 2 2 2 2 2 2 2 2
2 2 2 2 2 2 2 2 2 2
2 2 2 2 2 2 2 2 2 2
2 2 2 2 2 2 2 2 2 2
2 2 2 2 2 2 2 2 2 2
2 2 2 2 2 2 2 2 2 2
2 2 2 2 2 2 2 2 2 2
2 2 2 2 2 2 2 2 2 2
2 2 2 2 2 2 2 2 2 2
2 2 2 2 2 2 2 2 2 2
2 2 2 2 2 2 2 2 2 2
2 2 2 2 2 2 2 2 2 2
2 2 2 2 2 2 2 2 2 2
2 2 2 2 2 2 2 2 2 2
2 2 2 2 2 2 2 2 2 2
2 2 2 2 2 2 2 2 2 2
2 
yPlus 1 772 float
0 0 0 0 0 0 0 0 0 0 0
0 0 0 0 0 0 0 0 0 0
0 0 0 0 0 0 0 0 0 0
0 0 0 0 0 0 0 0 0 0
0 0 0 0 0 0 0 0 0 0
0 0 0 0 0 0 0 0 0 0
0 0 0 0 0 0 0 0 0 0
0 0 0 0 0 0 0 0 0 0
0 0 0 0 0 0 0 0 0 0
0 0 0 0 0 0 0 0 0 0
0 0 0 0 0 0 0 0 0 0
0 0 0 0 0 0 0 0 0 0
0 0 0 0 0 0 0 0 0 0
0 0 0 0 0 0 0 0 0 0
0 0 0 0 0 0 0 0 0 0
0 0 0 0 0 0 0 0 0 0
0 0 0 0 0 0 0 0 0 0
0 0 0 0 0 0 0 0 0 0
0 0 0 0 0 0 0 0 0 0
0 0 0 0 0 0 0 0 0 0
0 0 0 0 0 0 0 0 0 0
0 0 0 0 0 0 0 0 0 0
0 0 0 0 0 0 0 0 0 0
0 0 0 0 0 0 0 0 0 0
0 0 0 0 0 0 0 0 0 0
0 0 0 0 0 0 0 0 0 0
0 0 0 0 0 0 0 0 0 0
0 0 0 0 0 0 0 0 0 0
0 0 0 0 0 0 0 0 0 0
0 0 0 0 0 0 0 0 0 0
0 0 0 0 0 0 0 0 0 0
0 0 0 0 0 0 0 0 0 0
0 0 0 0 0 0 0 0 0 0
0 0 0 0 0 0 0 0 0 0
0 0 0 0 0 0 0 0 0 0
0 0 0 0 0 0 0 0 0 0
0 0 0 0 0 0 0 0 0 0
0 0 0 0 0 0 0 0 0 0
0 0 0 0 0 0 0 0 0 0
0 0 0 0 0 0 0 0 0 0
0 0 0 0 0 0 0 0 0 0
0 0 0 0 0 0 0 0 0 0
0 0 0 0 0 0 0 0 0 0
0 0 0 0 0 0 0 0 0 0
0 0 0 0 0 0 0 0 0 0
0 0 0 0 0 0 0 0 0 0
0 0 0 0 0 0 0 0 0 0
0 0 0 0 0 0 0 0 0 0
0 0 0 0 0 0 0 0 0 0
0 0 0 0 0 0 0 0 0 0
0 0 0 0 0 0 0 0 0 0
0 0 0 0 0 0 0 0 0 0
0 0 0 0 0 0 0 0 0 0
0 0 0 0 0 0 0 0 0 0
0 0 0 0 0 0 0 0 0 0
0 0 0 0 0 0 0 0 0 0
0 0 0 0 0 0 0 0 0 0
0 0 0 0 0 0 0 0 0 0
0 0 0 0 0 0 0 0 0 0
0 0 0 0 0 0 0 0 0 0
0 0 0 0 0 0 0 0 0 0
0 0 0 0 0 0 0 0 0 0
0 0 0 0 0 0 0 0 0 0
0 0 0 0 0 0 0 0 0 0
0 0 0 0 0 0 0 0 0 0
0 0 0 0 0 0 0 0 0 0
0 0 0 0 0 0 0 0 0 0
0 0 0 0 0 0 0 0 0 0
0 0 0 0 0 0 0 0 0 0
0 0 0 0 0 0 0 0 0 0
0 0 0 0 0 0 0 0 0 0
0 0 0 0 0 0 0 0 0 0
0 0 0 0 0 0 0 0 0 0
0 0 0 0 0 0 0 0 0 0
0 0 0 0 0 0 0 0 0 0
0 0 0 0 0 0 0 0 0 0
0 0 0 0 0 0 0 0 0 0
0 
wallShearStress 3 772 float
0 0 0 0 0 0 0 0 0 0 0
0 0 0 0 0 0 0 0 0 0
0 0 0 0 0 0 0 0 0 0
0 0 0 0 0 0 0 0 0 0
0 0 0 0 0 0 0 0 0 0
0 0 0 0 0 0 0 0 0 0
0 0 0 0 0 0 0 0 0 0
0 0 0 0 0 0 0 0 0 0
0 0 0 0 0 0 0 0 0 0
0 0 0 0 0 0 0 0 0 0
0 0 0 0 0 0 0 0 0 0
0 0 0 0 0 0 0 0 0 0
0 0 0 0 0 0 0 0 0 0
0 0 0 0 0 0 0 0 0 0
0 0 0 0 0 0 0 0 0 0
0 0 0 0 0 0 0 0 0 0
0 0 0 0 0 0 0 0 0 0
0 0 0 0 0 0 0 0 0 0
0 0 0 0 0 0 0 0 0 0
0 0 0 0 0 0 0 0 0 0
0 0 0 0 0 0 0 0 0 0
0 0 0 0 0 0 0 0 0 0
0 0 0 0 0 0 0 0 0 0
0 0 0 0 0 0 0 0 0 0
0 0 0 0 0 0 0 0 0 0
0 0 0 0 0 0 0 0 0 0
0 0 0 0 0 0 0 0 0 0
0 0 0 0 0 0 0 0 0 0
0 0 0 0 0 0 0 0 0 0
0 0 0 0 0 0 0 0 0 0
0 0 0 0 0 0 0 0 0 0
0 0 0 0 0 0 0 0 0 0
0 0 0 0 0 0 0 0 0 0
0 0 0 0 0 0 0 0 0 0
0 0 0 0 0 0 0 0 0 0
0 0 0 0 0 0 0 0 0 0
0 0 0 0 0 0 0 0 0 0
0 0 0 0 0 0 0 0 0 0
0 0 0 0 0 0 0 0 0 0
0 0 0 0 0 0 0 0 0 0
0 0 0 0 0 0 0 0 0 0
0 0 0 0 0 0 0 0 0 0
0 0 0 0 0 0 0 0 0 0
0 0 0 0 0 0 0 0 0 0
0 0 0 0 0 0 0 0 0 0
0 0 0 0 0 0 0 0 0 0
0 0 0 0 0 0 0 0 0 0
0 0 0 0 0 0 0 0 0 0
0 0 0 0 0 0 0 0 0 0
0 0 0 0 0 0 0 0 0 0
0 0 0 0 0 0 0 0 0 0
0 0 0 0 0 0 0 0 0 0
0 0 0 0 0 0 0 0 0 0
0 0 0 0 0 0 0 0 0 0
0 0 0 0 0 0 0 0 0 0
0 0 0 0 0 0 0 0 0 0
0 0 0 0 0 0 0 0 0 0
0 0 0 0 0 0 0 0 0 0
0 0 0 0 0 0 0 0 0 0
0 0 0 0 0 0 0 0 0 0
0 0 0 0 0 0 0 0 0 0
0 0 0 0 0 0 0 0 0 0
0 0 0 0 0 0 0 0 0 0
0 0 0 0 0 0 0 0 0 0
0 0 0 0 0 0 0 0 0 0
0 0 0 0 0 0 0 0 0 0
0 0 0 0 0 0 0 0 0 0
0 0 0 0 0 0 0 0 0 0
0 0 0 0 0 0 0 0 0 0
0 0 0 0 0 0 0 0 0 0
0 0 0 0 0 0 0 0 0 0
0 0 0 0 0 0 0 0 0 0
0 0 0 0 0 0 0 0 0 0
0 0 0 0 0 0 0 0 0 0
0 0 0 0 0 0 0 0 0 0
0 0 0 0 0 0 0 0 0 0
0 0 0 0 0 0 0 0 0 0
0 0 0 0 0 0 0 0 0 0
0 0 0 0 0 0 0 0 0 0
0 0 0 0 0 0 0 0 0 0
0 0 0 0 0 0 0 0 0 0
0 0 0 0 0 0 0 0 0 0
0 0 0 0 0 0 0 0 0 0
0 0 0 0 0 0 0 0 0 0
0 0 0 0 0 0 0 0 0 0
0 0 0 0 0 0 0 0 0 0
0 0 0 0 0 0 0 0 0 0
0 0 0 0 0 0 0 0 0 0
0 0 0 0 0 0 0 0 0 0
0 0 0 0 0 0 0 0 0 0
0 0 0 0 0 0 0 0 0 0
0 0 0 0 0 0 0 0 0 0
0 0 0 0 0 0 0 0 0 0
0 0 0 0 0 0 0 0 0 0
0 0 0 0 0 0 0 0 0 0
0 0 0 0 0 0 0 0 0 0
0 0 0 0 0 0 0 0 0 0
0 0 0 0 0 0 0 0 0 0
0 0 0 0 0 0 0 0 0 0
0 0 0 0 0 0 0 0 0 0
0 0 0 0 0 0 0 0 0 0
0 0 0 0 0 0 0 0 0 0
0 0 0 0 0 0 0 0 0 0
0 0 0 0 0 0 0 0 0 0
0 0 0 0 0 0 0 0 0 0
0 0 0 0 0 0 0 0 0 0
0 0 0 0 0 0 0 0 0 0
0 0 0 0 0 0 0 0 0 0
0 0 0 0 0 0 0 0 0 0
0 0 0 0 0 0 0 0 0 0
0 0 0 0 0 0 0 0 0 0
0 0 0 0 0 0 0 0 0 0
0 0 0 0 0 0 0 0 0 0
0 0 0 0 0 0 0 0 0 0
0 0 0 0 0 0 0 0 0 0
0 0 0 0 0 0 0 0 0 0
0 0 0 0 0 0 0 0 0 0
0 0 0 0 0 0 0 0 0 0
0 0 0 0 0 0 0 0 0 0
0 0 0 0 0 0 0 0 0 0
0 0 0 0 0 0 0 0 0 0
0 0 0 0 0 0 0 0 0 0
0 0 0 0 0 0 0 0 0 0
0 0 0 0 0 0 0 0 0 0
0 0 0 0 0 0 0 0 0 0
0 0 0 0 0 0 0 0 0 0
0 0 0 0 0 0 0 0 0 0
0 0 0 0 0 0 0 0 0 0
0 0 0 0 0 0 0 0 0 0
0 0 0 0 0 0 0 0 0 0
0 0 0 0 0 0 0 0 0 0
0 0 0 0 0 0 0 0 0 0
0 0 0 0 0 0 0 0 0 0
0 0 0 0 0 0 0 0 0 0
0 0 0 0 0 0 0 0 0 0
0 0 0 0 0 0 0 0 0 0
0 0 0 0 0 0 0 0 0 0
0 0 0 0 0 0 0 0 0 0
0 0 0 0 0 0 0 0 0 0
0 0 0 0 0 0 0 0 0 0
0 0 0 0 0 0 0 0 0 0
0 0 0 0 0 0 0 0 0 0
0 0 0 0 0 0 0 0 0 0
0 0 0 0 0 0 0 0 0 0
0 0 0 0 0 0 0 0 0 0
0 0 0 0 0 0 0 0 0 0
0 0 0 0 0 0 0 0 0 0
0 0 0 0 0 0 0 0 0 0
0 0 0 0 0 0 0 0 0 0
0 0 0 0 0 0 0 0 0 0
0 0 0 0 0 0 0 0 0 0
0 0 0 0 0 0 0 0 0 0
0 0 0 0 0 0 0 0 0 0
0 0 0 0 0 0 0 0 0 0
0 0 0 0 0 0 0 0 0 0
0 0 0 0 0 0 0 0 0 0
0 0 0 0 0 0 0 0 0 0
0 0 0 0 0 0 0 0 0 0
0 0 0 0 0 0 0 0 0 0
0 0 0 0 0 0 0 0 0 0
0 0 0 0 0 0 0 0 0 0
0 0 0 0 0 0 0 0 0 0
0 0 0 0 0 0 0 0 0 0
0 0 0 0 0 0 0 0 0 0
0 0 0 0 0 0 0 0 0 0
0 0 0 0 0 0 0 0 0 0
0 0 0 0 0 0 0 0 0 0
0 0 0 0 0 0 0 0 0 0
0 0 0 0 0 0 0 0 0 0
0 0 0 0 0 0 0 0 0 0
0 0 0 0 0 0 0 0 0 0
0 0 0 0 0 0 0 0 0 0
0 0 0 0 0 0 0 0 0 0
0 0 0 0 0 0 0 0 0 0
0 0 0 0 0 0 0 0 0 0
0 0 0 0 0 0 0 0 0 0
0 0 0 0 0 0 0 0 0 0
0 0 0 0 0 0 0 0 0 0
0 0 0 0 0 0 0 0 0 0
0 0 0 0 0 0 0 0 0 0
0 0 0 0 0 0 0 0 0 0
0 0 0 0 0 0 0 0 0 0
0 0 0 0 0 0 0 0 0 0
0 0 0 0 0 0 0 0 0 0
0 0 0 0 0 0 0 0 0 0
0 0 0 0 0 0 0 0 0 0
0 0 0 0 0 0 0 0 0 0
0 0 0 0 0 0 0 0 0 0
0 0 0 0 0 0 0 0 0 0
0 0 0 0 0 0 0 0 0 0
0 0 0 0 0 0 0 0 0 0
0 0 0 0 0 0 0 0 0 0
0 0 0 0 0 0 0 0 0 0
0 0 0 0 0 0 0 0 0 0
0 0 0 0 0 0 0 0 0 0
0 0 0 0 0 0 0 0 0 0
0 0 0 0 0 0 0 0 0 0
0 0 0 0 0 0 0 0 0 0
0 0 0 0 0 0 0 0 0 0
0 0 0 0 0 0 0 0 0 0
0 0 0 0 0 0 0 0 0 0
0 0 0 0 0 0 0 0 0 0
0 0 0 0 0 0 0 0 0 0
0 0 0 0 0 0 0 0 0 0
0 0 0 0 0 0 0 0 0 0
0 0 0 0 0 0 0 0 0 0
0 0 0 0 0 0 0 0 0 0
0 0 0 0 0 0 0 0 0 0
0 0 0 0 0 0 0 0 0 0
0 0 0 0 0 0 0 0 0 0
0 0 0 0 0 0 0 0 0 0
0 0 0 0 0 0 0 0 0 0
0 0 0 0 0 0 0 0 0 0
0 0 0 0 0 0 0 0 0 0
0 0 0 0 0 0 0 0 0 0
0 0 0 0 0 0 0 0 0 0
0 0 0 0 0 0 0 0 0 0
0 0 0 0 0 0 0 0 0 0
0 0 0 0 0 0 0 0 0 0
0 0 0 0 0 0 0 0 0 0
0 0 0 0 0 0 0 0 0 0
0 0 0 0 0 0 0 0 0 0
0 0 0 0 0 0 0 0 0 0
0 0 0 0 0 0 0 0 0 0
0 0 0 0 0 0 0 0 0 0
0 0 0 0 0 0 0 0 0 0
0 0 0 0 0 0 0 0 0 0
0 0 0 0 0 0 0 0 0 0
0 0 0 0 0 0 0 0 0 0
0 0 0 0 0 0 0 0 0 0
0 0 0 0 0 0 0 0 0 0
0 0 0 0 0 
U 3 772 float
10.1727 7.76275e-05 0 15.8953 0.000148365 0 15.8953 0.000148365 0 10.1727 7.76275e-05
0 24.3348 0.000295443 0 24.3348 0.000295443 0 28.6565 0.000411046 0
28.6565 0.000411046 0 31.3701 0.000502553 0 31.3701 0.000502553 0 33.3203
0.000604558 0 33.3203 0.000604558 0 34.8379 0.000702378 0 34.8379 0.000702378
0 36.0791 0.000797989 0 36.0791 0.000797989 0 37.1296 0.0008931 0
37.1296 0.0008931 0 38.0411 0.000988438 0 38.0411 0.000988438 0 38.847
0.00108436 0 38.847 0.00108436 0 39.5701 0.00118113 0 39.5701 0.00118113
0 40.2267 0.00127899 0 40.2267 0.00127899 0 40.8287 0.00137813 0
40.8287 0.00137813 0 41.3851 0.0014787 0 41.3851 0.0014787 0 41.9029
0.00158083 0 41.9029 0.00158083 0 42.3875 0.00168466 0 42.3875 0.00168466
0 42.8435 0.00179027 0 42.8435 0.00179027 0 43.2744 0.00189776 0
43.2744 0.00189776 0 43.6832 0.00200723 0 43.6832 0.00200723 0 44.0725
0.00211875 0 44.0725 0.00211875 0 44.4442 0.00223239 0 44.4442 0.00223239
0 44.8002 0.00234823 0 44.8002 0.00234823 0 45.1419 0.00246633 0
45.1419 0.00246633 0 45.4709 0.00258677 0 45.4709 0.00258677 0 45.7881
0.00270959 0 45.7881 0.00270959 0 46.0946 0.00283486 0 46.0946 0.00283486
0 46.3913 0.00296265 0 46.3913 0.00296265 0 46.6789 0.003093 0
46.6789 0.003093 0 46.9582 0.00322597 0 46.9582 0.00322597 0 47.2299
0.00336163 0 47.2299 0.00336163 0 47.4943 0.00350003 0 47.4943 0.00350003
0 47.7522 0.00364122 0 47.7522 0.00364122 0 48.0038 0.00378526 0
48.0038 0.00378526 0 48.2497 0.00393222 0 48.2497 0.00393222 0 48.4902
0.00408214 0 48.4902 0.00408214 0 48.7257 0.00423511 0 48.7257 0.00423511
0 48.9564 0.00439117 0 48.9564 0.00439117 0 49.1827 0.0045504 0
49.1827 0.0045504 0 49.4049 0.00471286 0 49.4049 0.00471286 0 49.6231
0.00487864 0 49.6231 0.00487864 0 49.8376 0.00504779 0 49.8376 0.00504779
0 50.0487 0.00522039 0 50.0487 0.00522039 0 50.2564 0.00539653 0
50.2564 0.00539653 0 50.4611 0.00557628 0 50.4611 0.00557628 0 50.6628
0.00575972 0 50.6628 0.00575972 0 50.8618 0.00594694 0 50.8618 0.00594694
0 51.0581 0.00613804 0 51.0581 0.00613804 0 51.252 0.00633309 0
51.252 0.00633309 0 51.4436 0.0065322 0 51.4436 0.0065322 0 51.6329
0.00673545 0 51.6329 0.00673545 0 51.8201 0.00694295 0 51.8201 0.00694295
0 52.0053 0.00715481 0 52.0053 0.00715481 0 52.1887 0.00737112 0
52.1887 0.00737112 0 52.3703 0.00759199 0 52.3703 0.00759199 0 52.5502
0.00781755 0 52.5502 0.00781755 0 52.7285 0.0080479 0 52.7285 0.0080479
0 52.9053 0.00828316 0 52.9053 0.00828316 0 53.0807 0.00852346 0
53.0807 0.00852346 0 53.2547 0.00876894 0 53.2547 0.00876894 0 53.4275
0.00901971 0 53.4275 0.00901971 0 53.5991 0.00927591 0 53.5991 0.00927591
0 53.7696 0.0095377 0 53.7696 0.0095377 0 53.939 0.00980521 0
53.939 0.00980521 0 54.1075 0.0100786 0 54.1075 0.0100786 0 54.275
0.010358 0 54.275 0.010358 0 54.4417 0.0106436 0 54.4417 0.0106436
0 54.6075 0.0109356 0 54.6075 0.0109356 0 54.7727 0.0112342 0
54.7727 0.0112342 0 54.9371 0.0115394 0 54.9371 0.0115394 0 55.101
0.0118515 0 55.101 0.0118515 0 55.2643 0.0121708 0 55.2643 0.0121708
0 55.427 0.0124974 0 55.427 0.0124974 0 55.5893 0.0128314 0
55.5893 0.0128314 0 55.7512 0.0131732 0 55.7512 0.0131732 0 55.9127
0.013523 0 55.9127 0.013523 0 56.0739 0.0138809 0 56.0739 0.0138809
0 56.2348 0.0142472 0 56.2348 0.0142472 0 56.3955 0.0146222 0
56.3955 0.0146222 0 56.5561 0.0150062 0 56.5561 0.0150062 0 56.7165
0.0153993 0 56.7165 0.0153993 0 56.8769 0.0158019 0 56.8769 0.0158019
0 57.0372 0.0162142 0 57.0372 0.0162142 0 57.1976 0.0166367 0
57.1976 0.0166367 0 57.358 0.0170695 0 57.358 0.0170695 0 57.5186
0.017513 0 57.5186 0.017513 0 57.6793 0.0179675 0 57.6793 0.0179675
0 57.8403 0.0184335 0 57.8403 0.0184335 0 58.0015 0.0189112 0
58.0015 0.0189112 0 58.163 0.0194012 0 58.163 0.0194012 0 58.3249
0.0199038 0 58.3249 0.0199038 0 58.4872 0.0204195 0 58.4872 0.0204195
0 58.65 0.0209488 0 58.65 0.0209488 0 58.8135 0.0214928 0
58.8135 0.0214928 0 58.978 0.0220528 0 58.978 0.0220528 0 59.1436
0.0226299 0 59.1436 0.0226299 0 59.3105 0.0232249 0 59.3105 0.0232249
0 59.4788 0.0238388 0 59.4788 0.0238388 0 59.6484 0.024472 0
59.6484 0.024472 0 59.8195 0.025125 0 59.8195 0.025125 0 59.9919
0.0257984 0 59.9919 0.0257984 0 60.1658 0.0264926 0 60.1658 0.0264926
0 60.3411 0.0272082 0 60.3411 0.0272082 0 60.5178 0.0279458 0
60.5178 0.0279458 0 60.696 0.028706 0 60.696 0.028706 0 60.8757
0.0294898 0 60.8757 0.0294898 0 61.0569 0.0302978 0 61.0569 0.0302978
0 61.2398 0.0311311 0 61.2398 0.0311311 0 61.4244 0.0319908 0
61.4244 0.0319908 0 61.6108 0.0328781 0 61.6108 0.0328781 0 61.7991
0.0337944 0 61.7991 0.0337944 0 61.9895 0.0347411 0 61.9895 0.0347411
0 62.1821 0.03572 0 62.1821 0.03572 0 62.3772 0.0367328 0
62.3772 0.0367328 0 62.5748 0.0377815 0 62.5748 0.0377815 0 62.7752
0.0388682 0 62.7752 0.0388682 0 62.9785 0.0399952 0 62.9785 0.0399952
0 63.185 0.0411648 0 63.185 0.0411648 0 63.3949 0.0423796 0
63.3949 0.0423796 0 63.6083 0.0436419 0 63.6083 0.0436419 0 63.8255
0.0449543 0 63.8255 0.0449543 0 64.0464 0.0463189 0 64.0464 0.0463189
0 64.2712 0.0477375 0 64.2712 0.0477375 0 64.4998 0.049211 0
64.4998 0.049211 0 64.7319 0.050739 0 64.7319 0.050739 0 64.9668
0.0523194 0 64.9668 0.0523194 0 65.2039 0.0539474 0 65.2039 0.0539474
0 65.4417 0.0556149 0 65.4417 0.0556149 0 65.6786 0.0573102 0
65.6786 0.0573102 0 65.9125 0.059018 0 65.9125 0.059018 0 66.1412
0.0607217 0 66.1412 0.0607217 0 66.3632 0.0624092 0 66.3632 0.0624092
0 66.5781 0.0640775 0 66.5781 0.0640775 0 66.7879 0.0657414 0
66.7879 0.0657414 0 66.9964 0.0674372 0 66.9964 0.0674372 0 67.2056
0.0691838 0 67.2056 0.0691838 0 67.416 0.0709781 0 67.416 0.0709781
0 67.6274 0.0728223 0 67.6274 0.0728223 0 67.84 0.0747202 0
67.84 0.0747202 0 68.0535 0.0766749 0 68.0535 0.0766749 0 68.2679
0.0786899 0 68.2679 0.0786899 0 68.4833 0.0807696 0 68.4833 0.0807696
0 68.6993 0.0829187 0 68.6993 0.0829187 0 68.9158 0.0851414 0
68.9158 0.0851414 0 69.132 0.0874452 0 69.132 0.0874452 0 69.3457
0.0898862 0 69.3457 0.0898862 0 69.538 0.0922966 0 69.538 0.0922966
0 69.6607 0.094048 0 69.6607 0.094048 0 69.7015 0.094997 0
69.7015 0.094997 0 69.7059 0.0956851 0 69.7059 0.0956851 0 69.7055
0.0963727 0 69.7055 0.0963727 0 69.7055 0.0970289 0 69.7055 0.0970289
0 69.7055 0.0976361 0 69.7055 0.0976361 0 69.7054 0.0981942 0
69.7054 0.0981942 0 69.7054 0.0987059 0 69.7054 0.0987059 0 69.7054
0.0991738 0 69.7054 0.0991738 0 69.7054 0.0996002 0 69.7054 0.0996002
0 69.7054 0.0999875 0 69.7054 0.0999875 0 69.7054 0.100338 0
69.7054 0.100338 0 69.7054 0.100654 0 69.7054 0.100654 0 69.7053
0.100937 0 69.7053 0.100937 0 69.7053 0.101189 0 69.7053 0.101189
0 69.7053 0.101413 0 69.7053 0.101413 0 69.7053 0.10161 0
69.7053 0.10161 0 69.7053 0.101782 0 69.7053 0.101782 0 69.7053
0.101931 0 69.7053 0.101931 0 69.7052 0.102058 0 69.7052 0.102058
0 69.7052 0.102165 0 69.7052 0.102165 0 69.7052 0.102253 0
69.7052 0.102253 0 69.7052 0.102324 0 69.7052 0.102324 0 69.7052
0.102379 0 69.7052 0.102379 0 69.7051 0.10242 0 69.7051 0.10242
0 69.7051 0.102446 0 69.7051 0.102446 0 69.7051 0.102461 0
69.7051 0.102461 0 69.7051 0.102463 0 69.7051 0.102463 0 69.705
0.102455 0 69.705 0.102455 0 69.705 0.102438 0 69.705 0.102438
0 69.705 0.102412 0 69.705 0.102412 0 69.705 0.102377 0
69.705 0.102377 0 69.7049 0.102335 0 69.7049 0.102335 0 69.7049
0.102287 0 69.7049 0.102287 0 69.7049 0.102232 0 69.7049 0.102232
0 69.7049 0.102172 0 69.7049 0.102172 0 69.7048 0.102107 0
69.7048 0.102107 0 69.7048 0.102037 0 69.7048 0.102037 0 69.7048
0.101963 0 69.7048 0.101963 0 69.7047 0.101885 0 69.7047 0.101885
0 69.7047 0.101803 0 69.7047 0.101803 0 69.7047 0.101719 0
69.7047 0.101719 0 69.7046 0.101631 0 69.7046 0.101631 0 69.7046
0.101541 0 69.7046 0.101541 0 69.7045 0.101448 0 69.7045 0.101448
0 69.7045 0.101353 0 69.7045 0.101353 0 69.7044 0.101256 0
69.7044 0.101256 0 69.7044 0.101157 0 69.7044 0.101157 0 69.7044
0.101057 0 69.7044 0.101057 0 69.7043 0.100954 0 69.7043 0.100954
0 69.7043 0.10085 0 69.7043 0.10085 0 69.7042 0.100744 0
69.7042 0.100744 0 69.7042 0.100637 0 69.7042 0.100637 0 69.7041
0.100528 0 69.7041 0.100528 0 69.704 0.100418 0 69.704 0.100418
0 69.704 0.100307 0 69.704 0.100307 0 69.7039 0.100194 0
69.7039 0.100194 0 69.7039 0.10008 0 69.7039 0.10008 0 69.7038
0.0999645 0 69.7038 0.0999645 0 69.7037 0.0998478 0 69.7037 0.0998478
0 69.7037 0.0997297 0 69.7037 0.0997297 0 69.7036 0.0996104 0
69.7036 0.0996104 0 69.7035 0.0994896 0 69.7035 0.0994896 0 69.7035
0.0993676 0 69.7035 0.0993676 0 69.7034 0.0992441 0 69.7034 0.0992441
0 69.7033 0.0991192 0 69.7033 0.0991192 0 69.7032 0.098993 0
69.7032 0.098993 0 69.7031 0.0988652 0 69.7031 0.0988652 0 69.7031
0.098736 0 69.7031 0.098736 0 69.703 0.0986053 0 69.703 0.0986053
0 69.7029 0.0984731 0 69.7029 0.0984731 0 69.7028 0.0983393 0
69.7028 0.0983393 0 69.7027 0.0982039 0 69.7027 0.0982039 0 69.7026
0.0980668 0 69.7026 0.0980668 0 69.7025 0.0979281 0 69.7025 0.0979281
0 69.7024 0.0977877 0 69.7024 0.0977877 0 69.7023 0.0976455 0
69.7023 0.0976455 0 69.7022 0.0975016 0 69.7022 0.0975016 0 69.7021
0.0973559 0 69.7021 0.0973559 0 69.702 0.0972083 0 69.702 0.0972083
0 69.7018 0.0970588 0 69.7018 0.0970588 0 69.7017 0.0969073 0
69.7017 0.0969073 0 69.7016 0.0967539 0 69.7016 0.0967539 0 69.7015
0.0965985 0 69.7015 0.0965985 0 69.7013 0.0964411 0 69.7013 0.0964411
0 69.7012 0.0962815 0 69.7012 0.0962815 0 69.701 0.0961199 0
69.701 0.0961199 0 69.7009 0.095956 0 69.7009 0.095956 0 69.7008
0.0957899 0 69.7008 0.0957899 0 69.7006 0.0956216 0 69.7006 0.0956216
0 69.7004 0.095451 0 69.7004 0.095451 0 69.7003 0.095278 0
69.7003 0.095278 0 69.7001 0.0951026 0 69.7001 0.0951026 0 69.6999
0.0949248 0 69.6999 0.0949248 0 69.6998 0.0947445 0 69.6998 0.0947445
0 69.6996 0.0945617 0 69.6996 0.0945617 0 69.6994 0.0943763 0
69.6994 0.0943763 0 69.6992 0.0941883 0 69.6992 0.0941883 0 69.699
0.0939976 0 69.699 0.0939976 0 69.6988 0.0938042 0 69.6988 0.0938042
0 69.6986 0.093608 0 69.6986 0.093608 0 69.6984 0.093409 0
69.6984 0.093409 0 69.6982 0.0932071 0 69.6982 0.0932071 0 69.698
0.0930023 0 69.698 0.0930023 0 69.6977 0.0927946 0 69.6977 0.0927946
0 69.6975 0.0925838 0 69.6975 0.0925838 0 69.6973 0.0923699 0
69.6973 0.0923699 0 69.697 0.0921529 0 69.697 0.0921529 0 69.6968
0.0919328 0 69.6968 0.0919328 0 69.6965 0.0917093 0 69.6965 0.0917093
0 69.6963 0.0914826 0 69.6963 0.0914826 0 69.696 0.0912525 0
69.696 0.0912525 0 69.6957 0.091019 0 69.6957 0.091019 0 69.6954
0.0907821 0 69.6954 0.0907821 0 69.6951 0.0905416 0 69.6951 0.0905416
0 69.6948 0.0902975 0 69.6948 0.0902975 0 69.6945 0.0900498 0
69.6945 0.0900498 0 69.6942 0.0897983 0 69.6942 0.0897983 0 69.6939
0.0895431 0 69.6939 0.0895431 0 69.6936 0.089284 0 69.6936 0.089284
0 69.6933 0.089021 0 69.6933 0.089021 0 69.6929 0.088754 0
69.6929 0.088754 0 69.6926 0.088483 0 69.6926 0.088483 0 69.6922
0.0882079 0 69.6922 0.0882079 0 69.6918 0.0879286 0 69.6918 0.0879286
0 69.6915 0.0876451 0 69.6915 0.0876451 0 69.6911 0.0873572 0
69.6911 0.0873572 0 69.6907 0.0870649 0 69.6907 0.0870649 0 69.6903
0.0867682 0 69.6903 0.0867682 0 69.6899 0.086467 0 69.6899 0.086467
0 69.6895 0.0861611 0 69.6895 0.0861611 0 69.6891 0.0858505 0
69.6891 0.0858505 0 69.6887 0.0855352 0 69.6887 0.0855352 0 69.6882
0.085215 0 69.6882 0.085215 0 69.6878 0.0848899 0 69.6878 0.0848899
0 69.6873 0.0845597 0 69.6873 0.0845597 0 69.6869 0.0842245 0
69.6869 0.0842245 0 69.6864 0.0838841 0 69.6864 0.0838841 0 69.6859
0.0835385 0 69.6859 0.0835385 0 69.6854 0.0831875 0 69.6854 0.0831875
0 69.6849 0.082831 0 69.6849 0.082831 0 69.6844 0.0824691 0
69.6844 0.0824691 0 69.6839 0.0821015 0 69.6839 0.0821015 0 69.6834
0.0817282 0 69.6834 0.0817282 0 69.6828 0.0813491 0 69.6828 0.0813491
0 69.6823 0.0809642 0 69.6823 0.0809642 0 69.6817 0.0805732 0
69.6817 0.0805732 0 69.6812 0.0801761 0 69.6812 0.0801761 0 69.6806
0.0797729 0 69.6806 0.0797729 0 69.68 0.0793633 0 69.68 0.0793633
0 69.6795 0.0789474 0 69.6795 0.0789474 0 69.6789 0.078525 0
69.6789 0.078525 0 69.6783 0.078096 0 69.6783 0.078096 0 69.6777
0.0776603 0 69.6777 0.0776603 0 69.677 0.0772177 0 69.677 0.0772177
0 69.6764 0.0767683 0 69.6764 0.0767683 0 69.6758 0.0763118 0
69.6758 0.0763118 0 69.6751 0.0758481 0 69.6751 0.0758481 0 69.6745
0.0753772 0 69.6745 0.0753772 0 69.6738 0.0748989 0 69.6738 0.0748989
0 69.6732 0.0744131 0 69.6732 0.0744131 0 69.6725 0.0739197 0
69.6725 0.0739197 0 69.6718 0.0734185 0 69.6718 0.0734185 0 69.6711
0.0729095 0 69.6711 0.0729095 0 69.6704 0.0723924 0 69.6704 0.0723924
0 69.6697 0.0718673 0 69.6697 0.0718673 0 69.669 0.0713339 0
69.669 0.0713339 0 69.6683 0.0707921 0 69.6683 0.0707921 0 69.6676
0.0702418 0 69.6676 0.0702418 0 69.6668 0.0696828 0 69.6668 0.0696828
0 69.6661 0.069115 0 69.6661 0.069115 0 69.6654 0.0685384 0
69.6654 0.0685384 0 69.6646 0.0679526 0 69.6646 0.0679526 0 69.6639
0.0673576 0 69.6639 0.0673576 0 69.6631 0.0667532 0 69.6631 0.0667532
0 69.6624 0.0661394 0 69.6624 0.0661394 0 69.6616 0.0655158 0
69.6616 0.0655158 0 69.6608 0.0648825 0 69.6608 0.0648825 0 69.6601
0.0642391 0 69.6601 0.0642391 0 69.6593 0.0635856 0 69.6593 0.0635856
0 69.6585 0.0629219 0 69.6585 0.0629219 0 69.6577 0.0622477 0
69.6577 0.0622477 0 69.6569 0.0615628 0 69.6569 0.0615628 0 69.6562
0.0608672 0 69.6562 0.0608672 0 69.6554 0.0601606 0 69.6554 0.0601606
0 69.6546 0.0594429 0 69.6546 0.0594429 0 69.6538 0.0587139 0
69.6538 0.0587139 0 69.653 0.0579734 0 69.653 0.0579734 0 69.6522
0.0572212 0 69.6522 0.0572212 0 69.6514 0.0564572 0 69.6514 0.0564572
0 69.6506 0.0556812 0 69.6506 0.0556812 0 69.6499 0.054893 0
69.6499 0.054893 0 69.6491 0.0540923 0 69.6491 0.0540923 0 69.6483
0.0532791 0 69.6483 0.0532791 0 69.6475 0.0524531 0 69.6475 0.0524531
0 69.6467 0.051614 0 69.6467 0.051614 0 69.6459 0.0507618 0
69.6459 0.0507618 0 69.6452 0.0498962 0 69.6452 0.0498962 0 69.6444
0.049017 0 69.6444 0.049017 0 69.6436 0.048124 0 69.6436 0.048124
0 69.6429 0.047217 0 69.6429 0.047217 0 69.6421 0.0462958 0
69.6421 0.0462958 0 69.6414 0.04536 0 69.6414 0.04536 0 69.6406
0.0444097 0 69.6406 0.0444097 0 69.6399 0.0434444 0 69.6399 0.0434444
0 69.6392 0.042464 0 69.6392 0.042464 0 69.6385 0.0414683 0
69.6385 0.0414683 0 69.6377 0.040457 0 69.6377 0.040457 0 69.637
0.0394299 0 69.637 0.0394299 0 69.6364 0.0383867 0 69.6364 0.0383867
0 69.6357 0.0373273 0 69.6357 0.0373273 0 69.635 0.0362513 0
69.635 0.0362513 0 69.6344 0.0351585 0 69.6344 0.0351585 0 69.6337
0.0340487 0 69.6337 0.0340487 0 69.6331 0.0329217 0 69.6331 0.0329217
0 69.6325 0.0317771 0 69.6325 0.0317771 0 69.6319 0.0306148 0
69.6319 0.0306148 0 69.6313 0.0294344 0 69.6313 0.0294344 0 69.6307
0.0282357 0 69.6307 0.0282357 0 69.6302 0.0270184 0 69.6302 0.0270184
0 69.6296 0.0257823 0 69.6296 0.0257823 0 69.6291 0.0245271 0
69.6291 0.0245271 0 69.6286 0.0232526 0 69.6286 0.0232526 0 69.6282
0.0219583 0 69.6282 0.0219583 0 69.6277 0.0206442 0 69.6277 0.0206442
0 69.6273 0.0193098 0 69.6273 0.0193098 0 69.6269 0.017955 0
69.6269 0.017955 0 69.6265 0.0165794 0 69.6265 0.0165794 0 69.6261
0.0151827 0 69.6261 0.0151827 0 69.6258 0.0137647 0 69.6258 0.0137647
0 69.6255 0.0123251 0 69.6255 0.0123251 0 69.6252 0.0108635 0
69.6252 0.0108635 0 69.625 0.00937976 0 69.625 0.00937976 0 69.6248
0.00787348 0 69.6248 0.00787348 0 69.6246 0.00634439 0 69.6246 0.00634439
0 69.6245 0.0047922 0 69.6245 0.0047922 0 69.6244 0.00321662 0
69.6244 0.00321662 0 69.6243 0.00161733 0 69.6243 0.00161733 0 69.6243
0.000811603 0 69.6243 0.000811603 0 
C 3 772 float
2 2.4654e-05 0.05 2 4.94925e-05 0.05 2 4.94925e-05 0.05 2 2.4654e-05
0.05 2 9.95412e-05 0.05 2 9.95412e-05 0.05 2 0.000150339 0.05
2 0.000150339 0.05 2 0.000201897 0.05 2 0.000201897 0.05 2
0.000254226 0.05 2 0.000254226 0.05 2 0.000307338 0.05 2 0.000307338
0.05 2 0.000361245 0.05 2 0.000361245 0.05 2 0.000415959 0.05
2 0.000415959 0.05 2 0.000471492 0.05 2 0.000471492 0.05 2
0.000527856 0.05 2 0.000527856 0.05 2 0.000585063 0.05 2 0.000585063
0.05 2 0.000643126 0.05 2 0.000643126 0.05 2 0.000702058 0.05
2 0.000702058 0.05 2 0.000761872 0.05 2 0.000761872 0.05 2
0.000822581 0.05 2 0.000822581 0.05 2 0.000884199 0.05 2 0.000884199
0.05 2 0.000946738 0.05 2 0.000946738 0.05 2 0.00101021 0.05
2 0.00101021 0.05 2 0.00107464 0.05 2 0.00107464 0.05 2
0.00114003 0.05 2 0.00114003 0.05 2 0.0012064 0.05 2 0.0012064
0.05 2 0.00127376 0.05 2 0.00127376 0.05 2 0.00134213 0.05
2 0.00134213 0.05 2 0.00141152 0.05 2 0.00141152 0.05 2
0.00148195 0.05 2 0.00148195 0.05 2 0.00155343 0.05 2 0.00155343
0.05 2 0.00162599 0.05 2 0.00162599 0.05 2 0.00169963 0.05
2 0.00169963 0.05 2 0.00177437 0.05 2 0.00177437 0.05 2
0.00185023 0.05 2 0.00185023 0.05 2 0.00192723 0.05 2 0.00192723
0.05 2 0.00200537 0.05 2 0.00200537 0.05 2 0.00208469 0.05
2 0.00208469 0.05 2 0.0021652 0.05 2 0.0021652 0.05 2
0.00224691 0.05 2 0.00224691 0.05 2 0.00232984 0.05 2 0.00232984
0.05 2 0.00241401 0.05 2 0.00241401 0.05 2 0.00249944 0.05
2 0.00249944 0.05 2 0.00258615 0.05 2 0.00258615 0.05 2
0.00267416 0.05 2 0.00267416 0.05 2 0.00276349 0.05 2 0.00276349
0.05 2 0.00285415 0.05 2 0.00285415 0.05 2 0.00294617 0.05
2 0.00294617 0.05 2 0.00303956 0.05 2 0.00303956 0.05 2
0.00313436 0.05 2 0.00313436 0.05 2 0.00323057 0.05 2 0.00323057
0.05 2 0.00332822 0.05 2 0.00332822 0.05 2 0.00342733 0.05
2 0.00342733 0.05 2 0.00352793 0.05 2 0.00352793 0.05 2
0.00363003 0.05 2 0.00363003 0.05 2 0.00373366 0.05 2 0.00373366
0.05 2 0.00383884 0.05 2 0.00383884 0.05 2 0.0039456 0.05
2 0.0039456 0.05 2 0.00405395 0.05 2 0.00405395 0.05 2
0.00416392 0.05 2 0.00416392 0.05 2 0.00427554 0.05 2 0.00427554
0.05 2 0.00438883 0.05 2 0.00438883 0.05 2 0.00450381 0.05
2 0.00450381 0.05 2 0.00462052 0.05 2 0.00462052 0.05 2
0.00473897 0.05 2 0.00473897 0.05 2 0.00485919 0.05 2 0.00485919
0.05 2 0.00498122 0.05 2 0.00498122 0.05 2 0.00510507 0.05
2 0.00510507 0.05 2 0.00523077 0.05 2 0.00523077 0.05 2
0.00535835 0.05 2 0.00535835 0.05 2 0.00548785 0.05 2 0.00548785
0.05 2 0.00561928 0.05 2 0.00561928 0.05 2 0.00575267 0.05
2 0.00575267 0.05 2 0.00588807 0.05 2 0.00588807 0.05 2
0.00602549 0.05 2 0.00602549 0.05 2 0.00616496 0.05 2 0.00616496
0.05 2 0.00630653 0.05 2 0.00630653 0.05 2 0.00645021 0.05
2 0.00645021 0.05 2 0.00659604 0.05 2 0.00659604 0.05 2
0.00674406 0.05 2 0.00674406 0.05 2 0.00689429 0.05 2 0.00689429
0.05 2 0.00704676 0.05 2 0.00704676 0.05 2 0.00720152 0.05
2 0.00720152 0.05 2 0.0073586 0.05 2 0.0073586 0.05 2
0.00751802 0.05 2 0.00751802 0.05 2 0.00767983 0.05 2 0.00767983
0.05 2 0.00784407 0.05 2 0.00784407 0.05 2 0.00801076 0.05
2 0.00801076 0.05 2 0.00817994 0.05 2 0.00817994 0.05 2
0.00835166 0.05 2 0.00835166 0.05 2 0.00852594 0.05 2 0.00852594
0.05 2 0.00870284 0.05 2 0.00870284 0.05 2 0.00888238 0.05
2 0.00888238 0.05 2 0.00906461 0.05 2 0.00906461 0.05 2
0.00924956 0.05 2 0.00924956 0.05 2 0.00943729 0.05 2 0.00943729
0.05 2 0.00962782 0.05 2 0.00962782 0.05 2 0.0098212 0.05
2 0.0098212 0.05 2 0.0100175 0.05 2 0.0100175 0.05 2
0.0102167 0.05 2 0.0102167 0.05 2 0.0104189 0.05 2 0.0104189
0.05 2 0.0106241 0.05 2 0.0106241 0.05 2 0.0108324 0.05
2 0.0108324 0.05 2 0.0110438 0.05 2 0.0110438 0.05 2
0.0112584 0.05 2 0.0112584 0.05 2 0.0114762 0.05 2 0.0114762
0.05 2 0.0116972 0.05 2 0.0116972 0.05 2 0.0119216 0.05
2 0.0119216 0.05 2 0.0121493 0.05 2 0.0121493 0.05 2
0.0123804 0.05 2 0.0123804 0.05 2 0.012615 0.05 2 0.012615
0.05 2 0.012853 0.05 2 0.012853 0.05 2 0.0130947 0.05
2 0.0130947 0.05 2 0.0133399 0.05 2 0.0133399 0.05 2
0.0135889 0.05 2 0.0135889 0.05 2 0.0138415 0.05 2 0.0138415
0.05 2 0.014098 0.05 2 0.014098 0.05 2 0.0143583 0.05
2 0.0143583 0.05 2 0.0146224 0.05 2 0.0146224 0.05 2
0.0148906 0.05 2 0.0148906 0.05 2 0.0151627 0.05 2 0.0151627
0.05 2 0.0154389 0.05 2 0.0154389 0.05 2 0.0157192 0.05
2 0.0157192 0.05 2 0.0160038 0.05 2 0.0160038 0.05 2
0.0162926 0.05 2 0.0162926 0.05 2 0.0165857 0.05 2 0.0165857
0.05 2 0.0168832 0.05 2 0.0168832 0.05 2 0.0171852 0.05
2 0.0171852 0.05 2 0.0174916 0.05 2 0.0174916 0.05 2
0.0178027 0.05 2 0.0178027 0.05 2 0.0181184 0.05 2 0.0181184
0.05 2 0.0184388 0.05 2 0.0184388 0.05 2 0.0187641 0.05
2 0.0187641 0.05 2 0.0190942 0.05 2 0.0190942 0.05 2
0.0194292 0.05 2 0.0194292 0.05 2 0.0197693 0.05 2 0.0197693
0.05 2 0.0201144 0.05 2 0.0201144 0.05 2 0.0204647 0.05
2 0.0204647 0.05 2 0.0208203 0.05 2 0.0208203 0.05 2
0.0211812 0.05 2 0.0211812 0.05 2 0.0215474 0.05 2 0.0215474
0.05 2 0.0219192 0.05 2 0.0219192 0.05 2 0.0222965 0.05
2 0.0222965 0.05 2 0.0226795 0.05 2 0.0226795 0.05 2
0.0230682 0.05 2 0.0230682 0.05 2 0.0234627 0.05 2 0.0234627
0.05 2 0.0238631 0.05 2 0.0238631 0.05 2 0.0242695 0.05
2 0.0242695 0.05 2 0.024682 0.05 2 0.024682 0.05 2
0.0251006 0.05 2 0.0251006 0.05 2 0.0255256 0.05 2 0.0255256
0.05 2 0.0259569 0.05 2 0.0259569 0.05 2 0.0263946 0.05
2 0.0263946 0.05 2 0.0268389 0.05 2 0.0268389 0.05 2
0.0272898 0.05 2 0.0272898 0.05 2 0.0277475 0.05 2 0.0277475
0.05 2 0.028212 0.05 2 0.028212 0.05 2 0.0286835 0.05
2 0.0286835 0.05 2 0.0291621 0.05 2 0.0291621 0.05 2
0.0296478 0.05 2 0.0296478 0.05 2 0.0301407 0.05 2 0.0301407
0.05 2 0.0306411 0.05 2 0.0306411 0.05 2 0.0311489 0.05
2 0.0311489 0.05 2 0.0316644 0.05 2 0.0316644 0.05 2
0.0321875 0.05 2 0.0321875 0.05 2 0.0327185 0.05 2 0.0327185
0.05 2 0.0332574 0.05 2 0.0332574 0.05 2 0.0338044 0.05
2 0.0338044 0.05 2 0.0343596 0.05 2 0.0343596 0.05 2
0.034923 0.05 2 0.034923 0.05 2 0.035495 0.05 2 0.035495
0.05 2 0.0360754 0.05 2 0.0360754 0.05 2 0.0366646 0.05
2 0.0366646 0.05 2 0.0372626 0.05 2 0.0372626 0.05 2
0.0378695 0.05 2 0.0378695 0.05 2 0.0384855 0.05 2 0.0384855
0.05 2 0.0391107 0.05 2 0.0391107 0.05 2 0.0397453 0.05
2 0.0397453 0.05 2 0.0403894 0.05 2 0.0403894 0.05 2
0.0410431 0.05 2 0.0410431 0.05 2 0.0417066 0.05 2 0.0417066
0.05 2 0.04238 0.05 2 0.04238 0.05 2 0.0430635 0.05
2 0.0430635 0.05 2 0.0437572 0.05 2 0.0437572 0.05 2
0.0444613 0.05 2 0.0444613 0.05 2 0.045176 0.05 2 0.045176
0.05 2 0.0459013 0.05 2 0.0459013 0.05 2 0.0466375 0.05
2 0.0466375 0.05 2 0.0473847 0.05 2 0.0473847 0.05 2
0.0481431 0.05 2 0.0481431 0.05 2 0.0489129 0.05 2 0.0489129
0.05 2 0.0496941 0.05 2 0.0496941 0.05 2 0.0504871 0.05
2 0.0504871 0.05 2 0.0512919 0.05 2 0.0512919 0.05 2
0.0521088 0.05 2 0.0521088 0.05 2 0.0529379 0.05 2 0.0529379
0.05 2 0.0537794 0.05 2 0.0537794 0.05 2 0.0546334 0.05
2 0.0546334 0.05 2 0.0555003 0.05 2 0.0555003 0.05 2
0.0563802 0.05 2 0.0563802 0.05 2 0.0572732 0.05 2 0.0572732
0.05 2 0.0581795 0.05 2 0.0581795 0.05 2 0.0590995 0.05
2 0.0590995 0.05 2 0.0600332 0.05 2 0.0600332 0.05 2
0.0609808 0.05 2 0.0609808 0.05 2 0.0619427 0.05 2 0.0619427
0.05 2 0.0629189 0.05 2 0.0629189 0.05 2 0.0639098 0.05
2 0.0639098 0.05 2 0.0649155 0.05 2 0.0649155 0.05 2
0.0659362 0.05 2 0.0659362 0.05 2 0.0669722 0.05 2 0.0669722
0.05 2 0.0680237 0.05 2 0.0680237 0.05 2 0.069091 0.05
2 0.069091 0.05 2 0.0701742 0.05 2 0.0701742 0.05 2
0.0712736 0.05 2 0.0712736 0.05 2 0.0723895 0.05 2 0.0723895
0.05 2 0.0735221 0.05 2 0.0735221 0.05 2 0.0746716 0.05
2 0.0746716 0.05 2 0.0758383 0.05 2 0.0758383 0.05 2
0.0770225 0.05 2 0.0770225 0.05 2 0.0782244 0.05 2 0.0782244
0.05 2 0.0794443 0.05 2 0.0794443 0.05 2 0.0806825 0.05
2 0.0806825 0.05 2 0.0819392 0.05 2 0.0819392 0.05 2
0.0832146 0.05 2 0.0832146 0.05 2 0.0845092 0.05 2 0.0845092
0.05 2 0.0858232 0.05 2 0.0858232 0.05 2 0.0871568 0.05
2 0.0871568 0.05 2 0.0885103 0.05 2 0.0885103 0.05 2
0.0898841 0.05 2 0.0898841 0.05 2 0.0912785 0.05 2 0.0912785
0.05 2 0.0926938 0.05 2 0.0926938 0.05 2 0.0941302 0.05
2 0.0941302 0.05 2 0.0955881 0.05 2 0.0955881 0.05 2
0.0970678 0.05 2 0.0970678 0.05 2 0.0985697 0.05 2 0.0985697
0.05 2 0.100094 0.05 2 0.100094 0.05 2 0.101641 0.05
2 0.101641 0.05 2 0.103212 0.05 2 0.103212 0.05 2
0.104805 0.05 2 0.104805 0.05 2 0.106423 0.05 2 0.106423
0.05 2 0.108065 0.05 2 0.108065 0.05 2 0.109731 0.05
2 0.109731 0.05 2 0.111423 0.05 2 0.111423 0.05 2
0.113139 0.05 2 0.113139 0.05 2 0.114882 0.05 2 0.114882
0.05 2 0.11665 0.05 2 0.11665 0.05 2 0.118445 0.05
2 0.118445 0.05 2 0.120267 0.05 2 0.120267 0.05 2
0.122116 0.05 2 0.122116 0.05 2 0.123993 0.05 2 0.123993
0.05 2 0.125897 0.05 2 0.125897 0.05 2 0.127831 0.05
2 0.127831 0.05 2 0.129793 0.05 2 0.129793 0.05 2
0.131785 0.05 2 0.131785 0.05 2 0.133806 0.05 2 0.133806
0.05 2 0.135858 0.05 2 0.135858 0.05 2 0.13794 0.05
2 0.13794 0.05 2 0.140053 0.05 2 0.140053 0.05 2
0.142199 0.05 2 0.142199 0.05 2 0.144376 0.05 2 0.144376
0.05 2 0.146586 0.05 2 0.146586 0.05 2 0.148829 0.05
2 0.148829 0.05 2 0.151105 0.05 2 0.151105 0.05 2
0.153415 0.05 2 0.153415 0.05 2 0.155761 0.05 2 0.155761
0.05 2 0.158141 0.05 2 0.158141 0.05 2 0.160557 0.05
2 0.160557 0.05 2 0.163008 0.05 2 0.163008 0.05 2
0.165497 0.05 2 0.165497 0.05 2 0.168023 0.05 2 0.168023
0.05 2 0.170587 0.05 2 0.170587 0.05 2 0.173189 0.05
2 0.173189 0.05 2 0.17583 0.05 2 0.17583 0.05 2
0.17851 0.05 2 0.17851 0.05 2 0.181231 0.05 2 0.181231
0.05 2 0.183992 0.05 2 0.183992 0.05 2 0.186795 0.05
2 0.186795 0.05 2 0.189639 0.05 2 0.189639 0.05 2
0.192527 0.05 2 0.192527 0.05 2 0.195457 0.05 2 0.195457
0.05 2 0.198431 0.05 2 0.198431 0.05 2 0.20145 0.05
2 0.20145 0.05 2 0.204514 0.05 2 0.204514 0.05 2
0.207624 0.05 2 0.207624 0.05 2 0.21078 0.05 2 0.21078
0.05 2 0.213983 0.05 2 0.213983 0.05 2 0.217235 0.05
2 0.217235 0.05 2 0.220535 0.05 2 0.220535 0.05 2
0.223884 0.05 2 0.223884 0.05 2 0.227284 0.05 2 0.227284
0.05 2 0.230734 0.05 2 0.230734 0.05 2 0.234237 0.05
2 0.234237 0.05 2 0.237791 0.05 2 0.237791 0.05 2
0.241399 0.05 2 0.241399 0.05 2 0.245061 0.05 2 0.245061
0.05 2 0.248777 0.05 2 0.248777 0.05 2 0.252549 0.05
2 0.252549 0.05 2 0.256378 0.05 2 0.256378 0.05 2
0.260264 0.05 2 0.260264 0.05 2 0.264208 0.05 2 0.264208
0.05 2 0.268211 0.05 2 0.268211 0.05 2 0.272274 0.05
2 0.272274 0.05 2 0.276397 0.05 2 0.276397 0.05 2
0.280583 0.05 2 0.280583 0.05 2 0.284831 0.05 2 0.284831
0.05 2 0.289143 0.05 2 0.289143 0.05 2 0.293519 0.05
2 0.293519 0.05 2 0.29796 0.05 2 0.29796 0.05 2
0.302468 0.05 2 0.302468 0.05 2 0.307044 0.05 2 0.307044
0.05 2 0.311688 0.05 2 0.311688 0.05 2 0.316402 0.05
2 0.316402 0.05 2 0.321186 0.05 2 0.321186 0.05 2
0.326041 0.05 2 0.326041 0.05 2 0.33097 0.05 2 0.33097
0.05 2 0.335972 0.05 2 0.335972 0.05 2 0.341049 0.05
2 0.341049 0.05 2 0.346202 0.05 2 0.346202 0.05 2
0.351432 0.05 2 0.351432 0.05 2 0.35674 0.05 2 0.35674
0.05 2 0.362128 0.05 2 0.362128 0.05 2 0.367596 0.05
2 0.367596 0.05 2 0.373146 0.05 2 0.373146 0.05 2
0.37878 0.05 2 0.37878 0.05 2 0.384497 0.05 2 0.384497
0.05 2 0.3903 0.05 2 0.3903 0.05 2 0.39619 0.05
2 0.39619 0.05 2 0.402168 0.05 2 0.402168 0.05 2
0.408236 0.05 2 0.408236 0.05 2 0.414394 0.05 2 0.414394
0.05 2 0.420645 0.05 2 0.420645 0.05 2 0.426989 0.05
2 0.426989 0.05 2 0.433428 0.05 2 0.433428 0.05 2
0.439963 0.05 2 0.439963 0.05 2 0.446596 0.05 2 0.446596
0.05 2 0.453328 0.05 2 0.453328 0.05 2 0.460162 0.05
2 0.460162 0.05 2 0.467097 0.05 2 0.467097 0.05 2
0.474136 0.05 2 0.474136 0.05 2 0.481281 0.05 2 0.481281
0.05 2 0.488532 0.05 2 0.488532 0.05 2 0.495892 0.05
2 0.495892 0.05 2 0.503362 0.05 2 0.503362 0.05 2
0.510944 0.05 2 0.510944 0.05 2 0.518639 0.05 2 0.518639
0.05 2 0.52645 0.05 2 0.52645 0.05 2 0.534377 0.05
2 0.534377 0.05 2 0.542423 0.05 2 0.542423 0.05 2
0.550589 0.05 2 0.550589 0.05 2 0.558878 0.05 2 0.558878
0.05 2 0.56729 0.05 2 0.56729 0.05 2 0.575829 0.05
2 0.575829 0.05 2 0.584495 0.05 2 0.584495 0.05 2
0.593291 0.05 2 0.593291 0.05 2 0.602219 0.05 2 0.602219
0.05 2 0.61128 0.05 2 0.61128 0.05 2 0.620477 0.05
2 0.620477 0.05 2 0.629811 0.05 2 0.629811 0.05 2
0.639285 0.05 2 0.639285 0.05 2 0.648901 0.05 2 0.648901
0.05 2 0.658661 0.05 2 0.658661 0.05 2 0.668567 0.05
2 0.668567 0.05 2 0.678621 0.05 2 0.678621 0.05 2
0.688825 0.05 2 0.688825 0.05 2 0.699182 0.05 2 0.699182
0.05 2 0.709694 0.05 2 0.709694 0.05 2 0.720364 0.05
2 0.720364 0.05 2 0.731193 0.05 2 0.731193 0.05 2
0.742184 0.05 2 0.742184 0.05 2 0.75334 0.05 2 0.75334
0.05 2 0.764663 0.05 2 0.764663 0.05 2 0.776155 0.05
2 0.776155 0.05 2 0.787819 0.05 2 0.787819 0.05 2
0.799657 0.05 2 0.799657 0.05 2 0.811673 0.05 2 0.811673
0.05 2 0.823869 0.05 2 0.823869 0.05 2 0.836247 0.05
2 0.836247 0.05 2 0.84881 0.05 2 0.84881 0.05 2
0.861561 0.05 2 0.861561 0.05 2 0.874503 0.05 2 0.874503
0.05 2 0.887639 0.05 2 0.887639 0.05 2 0.900971 0.05
2 0.900971 0.05 2 0.914503 0.05 2 0.914503 0.05 2
0.928237 0.05 2 0.928237 0.05 2 0.942177 0.05 2 0.942177
0.05 2 0.956326 0.05 2 0.956326 0.05 2 0.970686 0.05
2 0.970686 0.05 2 0.985261 0.05 2 0.985261 0.05 2
0.992604 0.05 2 0.992604 0.05 
