# vtk DataFile Version 2.0
bottomWall
ASCII
DATASET POLYDATA
POINTS 900 float
0 0 0 0.000971417 0 0 0.000971417 0 0.1 0 0
0.1 0.00194513 0 0 0.00194513 0 0.1 0.00292113 0 0
0.00292113 0 0.1 0.00389944 0 0 0.00389944 0 0.1 0.00488006
0 0 0.00488006 0 0.1 0.005863 0 0 0.005863 0
0.1 0.00684825 0 0 0.00684825 0 0.1 0.00783583 0 0
0.00783583 0 0.1 0.00882574 0 0 0.00882574 0 0.1 0.00981799
0 0 0.00981799 0 0.1 0.0108126 0 0 0.0108126 0
0.1 0.0118095 0 0 0.0118095 0 0.1 0.0128088 0 0
0.0128088 0 0.1 0.0138104 0 0 0.0138104 0 0.1 0.0148145
0 0 0.0148145 0 0.1 0.0158208 0 0 0.0158208 0
0.1 0.0168296 0 0 0.0168296 0 0.1 0.0178407 0 0
0.0178407 0 0.1 0.0188543 0 0 0.0188543 0 0.1 0.0198702
0 0 0.0198702 0 0.1 0.0208885 0 0 0.0208885 0
0.1 0.0219092 0 0 0.0219092 0 0.1 0.0229323 0 0
0.0229323 0 0.1 0.0239579 0 0 0.0239579 0 0.1 0.0249858
0 0 0.0249858 0 0.1 0.0260162 0 0 0.0260162 0
0.1 0.027049 0 0 0.027049 0 0.1 0.0280843 0 0
0.0280843 0 0.1 0.029122 0 0 0.029122 0 0.1 0.0301621
0 0 0.0301621 0 0.1 0.0312047 0 0 0.0312047 0
0.1 0.0322498 0 0 0.0322498 0 0.1 0.0332973 0 0
0.0332973 0 0.1 0.0343473 0 0 0.0343473 0 0.1 0.0353998
0 0 0.0353998 0 0.1 0.0364548 0 0 0.0364548 0
0.1 0.0375122 0 0 0.0375122 0 0.1 0.0385722 0 0
0.0385722 0 0.1 0.0396346 0 0 0.0396346 0 0.1 0.0406996
0 0 0.0406996 0 0.1 0.0417671 0 0 0.0417671 0
0.1 0.0428371 0 0 0.0428371 0 0.1 0.0439096 0 0
0.0439096 0 0.1 0.0449846 0 0 0.0449846 0 0.1 0.0460622
0 0 0.0460622 0 0.1 0.0471424 0 0 0.0471424 0
0.1 0.048225 0 0 0.048225 0 0.1 0.0493103 0 0
0.0493103 0 0.1 0.0503981 0 0 0.0503981 0 0.1 0.0514884
0 0 0.0514884 0 0.1 0.0525814 0 0 0.0525814 0
0.1 0.0536769 0 0 0.0536769 0 0.1 0.054775 0 0
0.054775 0 0.1 0.0558757 0 0 0.0558757 0 0.1 0.056979
0 0 0.056979 0 0.1 0.0580849 0 0 0.0580849 0
0.1 0.0591934 0 0 0.0591934 0 0.1 0.0603045 0 0
0.0603045 0 0.1 0.0614182 0 0 0.0614182 0 0.1 0.0625346
0 0 0.0625346 0 0.1 0.0636536 0 0 0.0636536 0
0.1 0.0647753 0 0 0.0647753 0 0.1 0.0658996 0 0
0.0658996 0 0.1 0.0670265 0 0 0.0670265 0 0.1 0.0681561
0 0 0.0681561 0 0.1 0.0692884 0 0 0.0692884 0
0.1 0.0704233 0 0 0.0704233 0 0.1 0.0715609 0 0
0.0715609 0 0.1 0.0727013 0 0 0.0727013 0 0.1 0.0738443
0 0 0.0738443 0 0.1 0.07499 0 0 0.07499 0
0.1 0.0761384 0 0 0.0761384 0 0.1 0.0772895 0 0
0.0772895 0 0.1 0.0784433 0 0 0.0784433 0 0.1 0.0795999
0 0 0.0795999 0 0.1 0.0807591 0 0 0.0807591 0
0.1 0.0819212 0 0 0.0819212 0 0.1 0.0830859 0 0
0.0830859 0 0.1 0.0842534 0 0 0.0842534 0 0.1 0.0854237
0 0 0.0854237 0 0.1 0.0865967 0 0 0.0865967 0
0.1 0.0877725 0 0 0.0877725 0 0.1 0.0889511 0 0
0.0889511 0 0.1 0.0901325 0 0 0.0901325 0 0.1 0.0913166
0 0 0.0913166 0 0.1 0.0925035 0 0 0.0925035 0
0.1 0.0936933 0 0 0.0936933 0 0.1 0.0948858 0 0
0.0948858 0 0.1 0.0960812 0 0 0.0960812 0 0.1 0.0972794
0 0 0.0972794 0 0.1 0.0984804 0 0 0.0984804 0
0.1 0.0996842 0 0 0.0996842 0 0.1 0.100891 0 0
0.100891 0 0.1 0.1021 0 0 0.1021 0 0.1 0.103313
0 0 0.103313 0 0.1 0.104528 0 0 0.104528 0
0.1 0.105746 0 0 0.105746 0 0.1 0.106967 0 0
0.106967 0 0.1 0.108191 0 0 0.108191 0 0.1 0.109418
0 0 0.109418 0 0.1 0.110647 0 0 0.110647 0
0.1 0.11188 0 0 0.11188 0 0.1 0.113115 0 0
0.113115 0 0.1 0.114354 0 0 0.114354 0 0.1 0.115595
0 0 0.115595 0 0.1 0.116839 0 0 0.116839 0
0.1 0.118087 0 0 0.118087 0 0.1 0.119337 0 0
0.119337 0 0.1 0.12059 0 0 0.12059 0 0.1 0.121846
0 0 0.121846 0 0.1 0.123105 0 0 0.123105 0
0.1 0.124367 0 0 0.124367 0 0.1 0.125632 0 0
0.125632 0 0.1 0.1269 0 0 0.1269 0 0.1 0.128171
0 0 0.128171 0 0.1 0.129444 0 0 0.129444 0
0.1 0.130721 0 0 0.130721 0 0.1 0.132001 0 0
0.132001 0 0.1 0.133284 0 0 0.133284 0 0.1 0.13457
0 0 0.13457 0 0.1 0.135859 0 0 0.135859 0
0.1 0.137151 0 0 0.137151 0 0.1 0.138446 0 0
0.138446 0 0.1 0.139745 0 0 0.139745 0 0.1 0.141046
0 0 0.141046 0 0.1 0.14235 0 0 0.14235 0
0.1 0.143658 0 0 0.143658 0 0.1 0.144968 0 0
0.144968 0 0.1 0.146282 0 0 0.146282 0 0.1 0.147598
0 0 0.147598 0 0.1 0.148918 0 0 0.148918 0
0.1 0.150241 0 0 0.150241 0 0.1 0.151567 0 0
0.151567 0 0.1 0.152896 0 0 0.152896 0 0.1 0.154228
0 0 0.154228 0 0.1 0.155564 0 0 0.155564 0
0.1 0.156902 0 0 0.156902 0 0.1 0.158244 0 0
0.158244 0 0.1 0.159589 0 0 0.159589 0 0.1 0.160937
0 0 0.160937 0 0.1 0.162288 0 0 0.162288 0
0.1 0.163643 0 0 0.163643 0 0.1 0.165 0 0
0.165 0 0.1 0.166361 0 0 0.166361 0 0.1 0.167725
0 0 0.167725 0 0.1 0.169092 0 0 0.169092 0
0.1 0.170463 0 0 0.170463 0 0.1 0.171837 0 0
0.171837 0 0.1 0.173214 0 0 0.173214 0 0.1 0.174594
0 0 0.174594 0 0.1 0.175977 0 0 0.175977 0
0.1 0.177364 0 0 0.177364 0 0.1 0.178754 0 0
0.178754 0 0.1 0.180147 0 0 0.180147 0 0.1 0.181544
0 0 0.181544 0 0.1 0.182944 0 0 0.182944 0
0.1 0.184347 0 0 0.184347 0 0.1 0.185754 0 0
0.185754 0 0.1 0.187163 0 0 0.187163 0 0.1 0.188577
0 0 0.188577 0 0.1 0.189993 0 0 0.189993 0
0.1 0.191413 0 0 0.191413 0 0.1 0.192836 0 0
0.192836 0 0.1 0.194263 0 0 0.194263 0 0.1 0.195692
0 0 0.195692 0 0.1 0.197126 0 0 0.197126 0
0.1 0.198562 0 0 0.198562 0 0.1 0.200002 0 0
0.200002 0 0.1 0.201446 0 0 0.201446 0 0.1 0.202893
0 0 0.202893 0 0.1 0.204343 0 0 0.204343 0
0.1 0.205797 0 0 0.205797 0 0.1 0.207254 0 0
0.207254 0 0.1 0.208552 0 0 0.208552 0 0.1 0.209863
0 0 0.209863 0 0.1 0.211189 0 0 0.211189 0
0.1 0.21253 0 0 0.21253 0 0.1 0.213885 0 0
0.213885 0 0.1 0.215254 0 0 0.215254 0 0.1 0.216639
0 0 0.216639 0 0.1 0.218038 0 0 0.218038 0
0.1 0.219453 0 0 0.219453 0 0.1 0.220884 0 0
0.220884 0 0.1 0.222329 0 0 0.222329 0 0.1 0.223791
0 0 0.223791 0 0.1 0.225268 0 0 0.225268 0
0.1 0.226762 0 0 0.226762 0 0.1 0.228271 0 0
0.228271 0 0.1 0.229797 0 0 0.229797 0 0.1 0.23134
0 0 0.23134 0 0.1 0.232899 0 0 0.232899 0
0.1 0.234476 0 0 0.234476 0 0.1 0.236069 0 0
0.236069 0 0.1 0.23768 0 0 0.23768 0 0.1 0.239308
0 0 0.239308 0 0.1 0.240954 0 0 0.240954 0
0.1 0.242618 0 0 0.242618 0 0.1 0.2443 0 0
0.2443 0 0.1 0.246001 0 0 0.246001 0 0.1 0.247719
0 0 0.247719 0 0.1 0.249457 0 0 0.249457 0
0.1 0.251213 0 0 0.251213 0 0.1 0.252988 0 0
0.252988 0 0.1 0.254783 0 0 0.254783 0 0.1 0.256597
0 0 0.256597 0 0.1 0.258431 0 0 0.258431 0
0.1 0.260285 0 0 0.260285 0 0.1 0.262159 0 0
0.262159 0 0.1 0.264054 0 0 0.264054 0 0.1 0.265969
0 0 0.265969 0 0.1 0.267904 0 0 0.267904 0
0.1 0.269861 0 0 0.269861 0 0.1 0.271839 0 0
0.271839 0 0.1 0.273839 0 0 0.273839 0 0.1 0.27586
0 0 0.27586 0 0.1 0.277904 0 0 0.277904 0
0.1 0.279969 0 0 0.279969 0 0.1 0.282057 0 0
0.282057 0 0.1 0.284168 0 0 0.284168 0 0.1 0.286302
0 0 0.286302 0 0.1 0.288458 0 0 0.288458 0
0.1 0.290639 0 0 0.290639 0 0.1 0.292843 0 0
0.292843 0 0.1 0.29507 0 0 0.29507 0 0.1 0.297323
0 0 0.297323 0 0.1 0.299599 0 0 0.299599 0
0.1 0.301901 0 0 0.301901 0 0.1 0.304227 0 0
0.304227 0 0.1 0.306578 0 0 0.306578 0 0.1 0.308956
0 0 0.308956 0 0.1 0.311359 0 0 0.311359 0
0.1 0.313788 0 0 0.313788 0 0.1 0.316243 0 0
0.316243 0 0.1 0.318726 0 0 0.318726 0 0.1 0.321235
0 0 0.321235 0 0.1 0.323771 0 0 0.323771 0
0.1 0.326336 0 0 0.326336 0 0.1 0.328927 0 0
0.328927 0 0.1 0.331548 0 0 0.331548 0 0.1 0.334196
0 0 0.334196 0 0.1 0.336874 0 0 0.336874 0
0.1 0.33958 0 0 0.33958 0 0.1 0.342316 0 0
0.342316 0 0.1 0.345082 0 0 0.345082 0 0.1 0.347877
0 0 0.347877 0 0.1 0.350703 0 0 0.350703 0
0.1 0.35356 0 0 0.35356 0 0.1 0.356448 0 0
0.356448 0 0.1 0.359367 0 0 0.359367 0 0.1 0.362318
0 0 0.362318 0 0.1 0.365301 0 0 0.365301 0
0.1 0.368317 0 0 0.368317 0 0.1 0.371365 0 0
0.371365 0 0.1 0.374446 0 0 0.374446 0 0.1 0.377561
0 0 0.377561 0 0.1 0.38071 0 0 0.38071 0
0.1 0.383893 0 0 0.383893 0 0.1 0.387111 0 0
0.387111 0 0.1 0.390363 0 0 0.390363 0 0.1 0.393651
0 0 0.393651 0 0.1 0.396975 0 0 0.396975 0
0.1 0.400334 0 0 0.400334 0 0.1 0.403731 0 0
0.403731 0 0.1 0.407164 0 0 0.407164 0 0.1 0.410634
0 0 0.410634 0 0.1 0.414142 0 0 0.414142 0
0.1 0.417689 0 0 0.417689 0 0.1 0.421274 0 0
0.421274 0 0.1 0.424898 0 0 0.424898 0 0.1 0.428561
0 0 0.428561 0 0.1 0.432264 0 0 0.432264 0
0.1 0.436007 0 0 0.436007 0 0.1 0.439791 0 0
0.439791 0 0.1 0.443616 0 0 0.443616 0 0.1 0.447483
0 0 0.447483 0 0.1 0.451392 0 0 0.451392 0
0.1 0.455343 0 0 0.455343 0 0.1 0.459337 0 0
0.459337 0 0.1 0.463375 0 0 0.463375 0 0.1 0.467456
0 0 0.467456 0 0.1 0.471582 0 0 0.471582 0
0.1 0.475753 0 0 0.475753 0 0.1 0.479969 0 0
0.479969 0 0.1 0.48423 0 0 0.48423 0 0.1 0.488539
0 0 0.488539 0 0.1 0.492894 0 0 0.492894 0
0.1 0.497296 0 0 0.497296 0 0.1 0.501746 0 0
0.501746 0 0.1 0.506245 0 0 0.506245 0 0.1 0.510792
0 0 0.510792 0 0.1 0.515389 0 0 0.515389 0
0.1 0.520036 0 0 0.520036 0 0.1 0.524733 0 0
0.524733 0 0.1 0.529481 0 0 0.529481 0 0.1 0.534281
0 0 0.534281 0 0.1 0.539134 0 0 0.539134 0
0.1 0.544038 0 0 0.544038 0 0.1 0.548997 0 0
0.548997 0 0.1 0.554009 0 0 0.554009 0 0.1 0.559075
0 0 0.559075 0 0.1 0.564197 0 0 0.564197 0
0.1 0.569374 0 0 0.569374 0 0.1 0.574608 0 0
0.574608 0 0.1 0.579898 0 0 0.579898 0 0.1 0.585246
0 0 0.585246 0 0.1 0.590653 0 0 0.590653 0
0.1 0.596117 0 0 0.596117 0 0.1 0.601642 0 0
0.601642 0 0.1 0.607226 0 0 0.607226 0 0.1 0.612871
0 0 0.612871 0 0.1 0.618577 0 0 0.618577 0
0.1 0.624346 0 0 0.624346 0 0.1 0.630177 0 0
0.630177 0 0.1 0.636071 0 0 0.636071 0 0.1 0.64203
0 0 0.64203 0 0.1 0.648053 0 0 0.648053 0
0.1 0.654142 0 0 0.654142 0 0.1 0.660297 0 0
0.660297 0 0.1 0.666519 0 0 0.666519 0 0.1 0.672808
0 0 0.672808 0 0.1 0.679166 0 0 0.679166 0
0.1 0.685593 0 0 0.685593 0 0.1 0.69209 0 0
0.69209 0 0.1 0.698657 0 0 0.698657 0 0.1 0.705296
0 0 0.705296 0 0.1 0.712007 0 0 0.712007 0
0.1 0.718791 0 0 0.718791 0 0.1 0.725649 0 0
0.725649 0 0.1 0.732581 0 0 0.732581 0 0.1 0.739588
0 0 0.739588 0 0.1 0.746672 0 0 0.746672 0
0.1 0.753833 0 0 0.753833 0 0.1 0.761071 0 0
0.761071 0 0.1 0.768389 0 0 0.768389 0 0.1 0.775785
0 0 0.775785 0 0.1 0.783262 0 0 0.783262 0
0.1 0.790821 0 0 0.790821 0 0.1 0.798461 0 0
0.798461 0 0.1 0.806185 0 0 0.806185 0 0.1 0.813993
0 0 0.813993 0 0.1 0.821885 0 0 0.821885 0
0.1 0.829863 0 0 0.829863 0 0.1 0.837928 0 0
0.837928 0 0.1 0.846081 0 0 0.846081 0 0.1 0.854322
0 0 0.854322 0 0.1 0.862653 0 0 0.862653 0
0.1 0.871074 0 0 0.871074 0 0.1 0.879587 0 0
0.879587 0 0.1 0.888192 0 0 0.888192 0 0.1 0.896891
0 0 0.896891 0 0.1 0.905684 0 0 0.905684 0
0.1 0.914573 0 0 0.914573 0 0.1 0.923559 0 0
0.923559 0 0.1 0.932642 0 0 0.932642 0 0.1 0.943878
0 0 0.943878 0 0.1 0.955113 0 0 0.955113 0
0.1 0.966349 0 0 0.966349 0 0.1 0.977584 0 0
0.977584 0 0.1 0.988819 0 0 0.988819 0 0.1 1.00005
0 0 1.00005 0 0.1 1.01129 0 0 1.01129 0
0.1 1.02253 0 0 1.02253 0 0.1 1.03376 0 0
1.03376 0 0.1 1.045 0 0 1.045 0 0.1 1.05623
0 0 1.05623 0 0.1 1.06747 0 0 1.06747 0
0.1 1.0787 0 0 1.0787 0 0.1 1.08994 0 0
1.08994 0 0.1 1.10117 0 0 1.10117 0 0.1 1.11241
0 0 1.11241 0 0.1 1.12364 0 0 1.12364 0
0.1 1.13488 0 0 1.13488 0 0.1 1.14611 0 0
1.14611 0 0.1 1.15735 0 0 1.15735 0 0.1 1.16858
0 0 1.16858 0 0.1 1.17982 0 0 1.17982 0
0.1 1.19106 0 0 1.19106 0 0.1 1.20229 0 0
1.20229 0 0.1 1.21353 0 0 1.21353 0 0.1 1.22476
0 0 1.22476 0 0.1 1.236 0 0 1.236 0
0.1 1.24723 0 0 1.24723 0 0.1 1.25847 0 0
1.25847 0 0.1 1.2697 0 0 1.2697 0 0.1 1.28094
0 0 1.28094 0 0.1 1.29217 0 0 1.29217 0
0.1 1.30341 0 0 1.30341 0 0.1 1.31464 0 0
1.31464 0 0.1 1.32588 0 0 1.32588 0 0.1 1.33711
0 0 1.33711 0 0.1 1.34835 0 0 1.34835 0
0.1 1.35959 0 0 1.35959 0 0.1 1.37082 0 0
1.37082 0 0.1 1.38206 0 0 1.38206 0 0.1 1.39329
0 0 1.39329 0 0.1 1.40453 0 0 1.40453 0
0.1 1.41576 0 0 1.41576 0 0.1 1.427 0 0
1.427 0 0.1 1.43823 0 0 1.43823 0 0.1 1.44947
0 0 1.44947 0 0.1 1.4607 0 0 1.4607 0
0.1 1.47194 0 0 1.47194 0 0.1 1.48317 0 0
1.48317 0 0.1 1.49441 0 0 1.49441 0 0.1 1.50564
0 0 1.50564 0 0.1 1.51688 0 0 1.51688 0
0.1 1.52812 0 0 1.52812 0 0.1 1.53935 0 0
1.53935 0 0.1 1.55059 0 0 1.55059 0 0.1 1.56182
0 0 1.56182 0 0.1 1.57306 0 0 1.57306 0
0.1 1.58429 0 0 1.58429 0 0.1 1.59553 0 0
1.59553 0 0.1 1.60676 0 0 1.60676 0 0.1 1.618
0 0 1.618 0 0.1 1.62923 0 0 1.62923 0
0.1 1.64047 0 0 1.64047 0 0.1 1.6517 0 0
1.6517 0 0.1 1.66294 0 0 1.66294 0 0.1 1.67418
0 0 1.67418 0 0.1 1.68541 0 0 1.68541 0
0.1 1.69665 0 0 1.69665 0 0.1 1.70788 0 0
1.70788 0 0.1 1.71912 0 0 1.71912 0 0.1 1.73035
0 0 1.73035 0 0.1 1.74159 0 0 1.74159 0
0.1 1.75282 0 0 1.75282 0 0.1 1.76406 0 0
1.76406 0 0.1 1.77529 0 0 1.77529 0 0.1 1.78653
0 0 1.78653 0 0.1 1.79776 0 0 1.79776 0
0.1 1.809 0 0 1.809 0 0.1 1.82023 0 0
1.82023 0 0.1 1.83147 0 0 1.83147 0 0.1 1.84271
0 0 1.84271 0 0.1 1.85394 0 0 1.85394 0
0.1 1.86518 0 0 1.86518 0 0.1 1.87641 0 0
1.87641 0 0.1 1.88765 0 0 1.88765 0 0.1 1.89888
0 0 1.89888 0 0.1 1.91012 0 0 1.91012 0
0.1 1.92135 0 0 1.92135 0 0.1 1.93259 0 0
1.93259 0 0.1 1.94382 0 0 1.94382 0 0.1 1.95506
0 0 1.95506 0 0.1 1.96629 0 0 1.96629 0
0.1 1.97753 0 0 1.97753 0 0.1 1.98876 0 0
1.98876 0 0.1 2 0 0 2 0 0.1 
POLYGONS 449 2245
4 0 1 2 3 4 1 4 5 2 4
4 6 7 5 4 6 8 9 7 4
8 10 11 9 4 10 12 13 11 4
12 14 15 13 4 14 16 17 15 4
16 18 19 17 4 18 20 21 19 4
20 22 23 21 4 22 24 25 23 4
24 26 27 25 4 26 28 29 27 4
28 30 31 29 4 30 32 33 31 4
32 34 35 33 4 34 36 37 35 4
36 38 39 37 4 38 40 41 39 4
40 42 43 41 4 42 44 45 43 4
44 46 47 45 4 46 48 49 47 4
48 50 51 49 4 50 52 53 51 4
52 54 55 53 4 54 56 57 55 4
56 58 59 57 4 58 60 61 59 4
60 62 63 61 4 62 64 65 63 4
64 66 67 65 4 66 68 69 67 4
68 70 71 69 4 70 72 73 71 4
72 74 75 73 4 74 76 77 75 4
76 78 79 77 4 78 80 81 79 4
80 82 83 81 4 82 84 85 83 4
84 86 87 85 4 86 88 89 87 4
88 90 91 89 4 90 92 93 91 4
92 94 95 93 4 94 96 97 95 4
96 98 99 97 4 98 100 101 99 4
100 102 103 101 4 102 104 105 103 4
104 106 107 105 4 106 108 109 107 4
108 110 111 109 4 110 112 113 111 4
112 114 115 113 4 114 116 117 115 4
116 118 119 117 4 118 120 121 119 4
120 122 123 121 4 122 124 125 123 4
124 126 127 125 4 126 128 129 127 4
128 130 131 129 4 130 132 133 131 4
132 134 135 133 4 134 136 137 135 4
136 138 139 137 4 138 140 141 139 4
140 142 143 141 4 142 144 145 143 4
144 146 147 145 4 146 148 149 147 4
148 150 151 149 4 150 152 153 151 4
152 154 155 153 4 154 156 157 155 4
156 158 159 157 4 158 160 161 159 4
160 162 163 161 4 162 164 165 163 4
164 166 167 165 4 166 168 169 167 4
168 170 171 169 4 170 172 173 171 4
172 174 175 173 4 174 176 177 175 4
176 178 179 177 4 178 180 181 179 4
180 182 183 181 4 182 184 185 183 4
184 186 187 185 4 186 188 189 187 4
188 190 191 189 4 190 192 193 191 4
192 194 195 193 4 194 196 197 195 4
196 198 199 197 4 198 200 201 199 4
200 202 203 201 4 202 204 205 203 4
204 206 207 205 4 206 208 209 207 4
208 210 211 209 4 210 212 213 211 4
212 214 215 213 4 214 216 217 215 4
216 218 219 217 4 218 220 221 219 4
220 222 223 221 4 222 224 225 223 4
224 226 227 225 4 226 228 229 227 4
228 230 231 229 4 230 232 233 231 4
232 234 235 233 4 234 236 237 235 4
236 238 239 237 4 238 240 241 239 4
240 242 243 241 4 242 244 245 243 4
244 246 247 245 4 246 248 249 247 4
248 250 251 249 4 250 252 253 251 4
252 254 255 253 4 254 256 257 255 4
256 258 259 257 4 258 260 261 259 4
260 262 263 261 4 262 264 265 263 4
264 266 267 265 4 266 268 269 267 4
268 270 271 269 4 270 272 273 271 4
272 274 275 273 4 274 276 277 275 4
276 278 279 277 4 278 280 281 279 4
280 282 283 281 4 282 284 285 283 4
284 286 287 285 4 286 288 289 287 4
288 290 291 289 4 290 292 293 291 4
292 294 295 293 4 294 296 297 295 4
296 298 299 297 4 298 300 301 299 4
300 302 303 301 4 302 304 305 303 4
304 306 307 305 4 306 308 309 307 4
308 310 311 309 4 310 312 313 311 4
312 314 315 313 4 314 316 317 315 4
316 318 319 317 4 318 320 321 319 4
320 322 323 321 4 322 324 325 323 4
324 326 327 325 4 326 328 329 327 4
328 330 331 329 4 330 332 333 331 4
332 334 335 333 4 334 336 337 335 4
336 338 339 337 4 338 340 341 339 4
340 342 343 341 4 342 344 345 343 4
344 346 347 345 4 346 348 349 347 4
348 350 351 349 4 350 352 353 351 4
352 354 355 353 4 354 356 357 355 4
356 358 359 357 4 358 360 361 359 4
360 362 363 361 4 362 364 365 363 4
364 366 367 365 4 366 368 369 367 4
368 370 371 369 4 370 372 373 371 4
372 374 375 373 4 374 376 377 375 4
376 378 379 377 4 378 380 381 379 4
380 382 383 381 4 382 384 385 383 4
384 386 387 385 4 386 388 389 387 4
388 390 391 389 4 390 392 393 391 4
392 394 395 393 4 394 396 397 395 4
396 398 399 397 4 398 400 401 399 4
400 402 403 401 4 402 404 405 403 4
404 406 407 405 4 406 408 409 407 4
408 410 411 409 4 410 412 413 411 4
412 414 415 413 4 414 416 417 415 4
416 418 419 417 4 418 420 421 419 4
420 422 423 421 4 422 424 425 423 4
424 426 427 425 4 426 428 429 427 4
428 430 431 429 4 430 432 433 431 4
432 434 435 433 4 434 436 437 435 4
436 438 439 437 4 438 440 441 439 4
440 442 443 441 4 442 444 445 443 4
444 446 447 445 4 446 448 449 447 4
448 450 451 449 4 450 452 453 451 4
452 454 455 453 4 454 456 457 455 4
456 458 459 457 4 458 460 461 459 4
460 462 463 461 4 462 464 465 463 4
464 466 467 465 4 466 468 469 467 4
468 470 471 469 4 470 472 473 471 4
472 474 475 473 4 474 476 477 475 4
476 478 479 477 4 478 480 481 479 4
480 482 483 481 4 482 484 485 483 4
484 486 487 485 4 486 488 489 487 4
488 490 491 489 4 490 492 493 491 4
492 494 495 493 4 494 496 497 495 4
496 498 499 497 4 498 500 501 499 4
500 502 503 501 4 502 504 505 503 4
504 506 507 505 4 506 508 509 507 4
508 510 511 509 4 510 512 513 511 4
512 514 515 513 4 514 516 517 515 4
516 518 519 517 4 518 520 521 519 4
520 522 523 521 4 522 524 525 523 4
524 526 527 525 4 526 528 529 527 4
528 530 531 529 4 530 532 533 531 4
532 534 535 533 4 534 536 537 535 4
536 538 539 537 4 538 540 541 539 4
540 542 543 541 4 542 544 545 543 4
544 546 547 545 4 546 548 549 547 4
548 550 551 549 4 550 552 553 551 4
552 554 555 553 4 554 556 557 555 4
556 558 559 557 4 558 560 561 559 4
560 562 563 561 4 562 564 565 563 4
564 566 567 565 4 566 568 569 567 4
568 570 571 569 4 570 572 573 571 4
572 574 575 573 4 574 576 577 575 4
576 578 579 577 4 578 580 581 579 4
580 582 583 581 4 582 584 585 583 4
584 586 587 585 4 586 588 589 587 4
588 590 591 589 4 590 592 593 591 4
592 594 595 593 4 594 596 597 595 4
596 598 599 597 4 598 600 601 599 4
600 602 603 601 4 602 604 605 603 4
604 606 607 605 4 606 608 609 607 4
608 610 611 609 4 610 612 613 611 4
612 614 615 613 4 614 616 617 615 4
616 618 619 617 4 618 620 621 619 4
620 622 623 621 4 622 624 625 623 4
624 626 627 625 4 626 628 629 627 4
628 630 631 629 4 630 632 633 631 4
632 634 635 633 4 634 636 637 635 4
636 638 639 637 4 638 640 641 639 4
640 642 643 641 4 642 644 645 643 4
644 646 647 645 4 646 648 649 647 4
648 650 651 649 4 650 652 653 651 4
652 654 655 653 4 654 656 657 655 4
656 658 659 657 4 658 660 661 659 4
660 662 663 661 4 662 664 665 663 4
664 666 667 665 4 666 668 669 667 4
668 670 671 669 4 670 672 673 671 4
672 674 675 673 4 674 676 677 675 4
676 678 679 677 4 678 680 681 679 4
680 682 683 681 4 682 684 685 683 4
684 686 687 685 4 686 688 689 687 4
688 690 691 689 4 690 692 693 691 4
692 694 695 693 4 694 696 697 695 4
696 698 699 697 4 698 700 701 699 4
700 702 703 701 4 702 704 705 703 4
704 706 707 705 4 706 708 709 707 4
708 710 711 709 4 710 712 713 711 4
712 714 715 713 4 714 716 717 715 4
716 718 719 717 4 718 720 721 719 4
720 722 723 721 4 722 724 725 723 4
724 726 727 725 4 726 728 729 727 4
728 730 731 729 4 730 732 733 731 4
732 734 735 733 4 734 736 737 735 4
736 738 739 737 4 738 740 741 739 4
740 742 743 741 4 742 744 745 743 4
744 746 747 745 4 746 748 749 747 4
748 750 751 749 4 750 752 753 751 4
752 754 755 753 4 754 756 757 755 4
756 758 759 757 4 758 760 761 759 4
760 762 763 761 4 762 764 765 763 4
764 766 767 765 4 766 768 769 767 4
768 770 771 769 4 770 772 773 771 4
772 774 775 773 4 774 776 777 775 4
776 778 779 777 4 778 780 781 779 4
780 782 783 781 4 782 784 785 783 4
784 786 787 785 4 786 788 789 787 4
788 790 791 789 4 790 792 793 791 4
792 794 795 793 4 794 796 797 795 4
796 798 799 797 4 798 800 801 799 4
800 802 803 801 4 802 804 805 803 4
804 806 807 805 4 806 808 809 807 4
808 810 811 809 4 810 812 813 811 4
812 814 815 813 4 814 816 817 815 4
816 818 819 817 4 818 820 821 819 4
820 822 823 821 4 822 824 825 823 4
824 826 827 825 4 826 828 829 827 4
828 830 831 829 4 830 832 833 831 4
832 834 835 833 4 834 836 837 835 4
836 838 839 837 4 838 840 841 839 4
840 842 843 841 4 842 844 845 843 4
844 846 847 845 4 846 848 849 847 4
848 850 851 849 4 850 852 853 851 4
852 854 855 853 4 854 856 857 855 4
856 858 859 857 4 858 860 861 859 4
860 862 863 861 4 862 864 865 863 4
864 866 867 865 4 866 868 869 867 4
868 870 871 869 4 870 872 873 871 4
872 874 875 873 4 874 876 877 875 4
876 878 879 877 4 878 880 881 879 4
880 882 883 881 4 882 884 885 883 4
884 886 887 885 4 886 888 889 887 4
888 890 891 889 4 890 892 893 891 4
892 894 895 893 4 894 896 897 895 4
896 898 899 897 
CELL_DATA 449
FIELD attributes 12
patchID 1 449 float
3 3 3 3 3 3 3 3 3 3 3
3 3 3 3 3 3 3 3 3 3
3 3 3 3 3 3 3 3 3 3
3 3 3 3 3 3 3 3 3 3
3 3 3 3 3 3 3 3 3 3
3 3 3 3 3 3 3 3 3 3
3 3 3 3 3 3 3 3 3 3
3 3 3 3 3 3 3 3 3 3
3 3 3 3 3 3 3 3 3 3
3 3 3 3 3 3 3 3 3 3
3 3 3 3 3 3 3 3 3 3
3 3 3 3 3 3 3 3 3 3
3 3 3 3 3 3 3 3 3 3
3 3 3 3 3 3 3 3 3 3
3 3 3 3 3 3 3 3 3 3
3 3 3 3 3 3 3 3 3 3
3 3 3 3 3 3 3 3 3 3
3 3 3 3 3 3 3 3 3 3
3 3 3 3 3 3 3 3 3 3
3 3 3 3 3 3 3 3 3 3
3 3 3 3 3 3 3 3 3 3
3 3 3 3 3 3 3 3 3 3
3 3 3 3 3 3 3 3 3 3
3 3 3 3 3 3 3 3 3 3
3 3 3 3 3 3 3 3 3 3
3 3 3 3 3 3 3 3 3 3
3 3 3 3 3 3 3 3 3 3
3 3 3 3 3 3 3 3 3 3
3 3 3 3 3 3 3 3 3 3
3 3 3 3 3 3 3 3 3 3
3 3 3 3 3 3 3 3 3 3
3 3 3 3 3 3 3 3 3 3
3 3 3 3 3 3 3 3 3 3
3 3 3 3 3 3 3 3 3 3
3 3 3 3 3 3 3 3 3 3
3 3 3 3 3 3 3 3 3 3
3 3 3 3 3 3 3 3 3 3
3 3 3 3 3 3 3 3 3 3
3 3 3 3 3 3 3 3 3 3
3 3 3 3 3 3 3 3 3 3
3 3 3 3 3 3 3 3 3 3
3 3 3 3 3 3 3 3 3 3
3 3 3 3 3 3 3 3 3 3
3 3 3 3 3 3 3 3 3 3
3 3 3 3 3 3 3 3 
Cy 1 449 float
0 0 0 0 0 0 0 0 0 0 0
0 0 0 0 0 0 0 0 0 0
0 0 0 0 0 0 0 0 0 0
0 0 0 0 0 0 0 0 0 0
0 0 0 0 0 0 0 0 0 0
0 0 0 0 0 0 0 0 0 0
0 0 0 0 0 0 0 0 0 0
0 0 0 0 0 0 0 0 0 0
0 0 0 0 0 0 0 0 0 0
0 0 0 0 0 0 0 0 0 0
0 0 0 0 0 0 0 0 0 0
0 0 0 0 0 0 0 0 0 0
0 0 0 0 0 0 0 0 0 0
0 0 0 0 0 0 0 0 0 0
0 0 0 0 0 0 0 0 0 0
0 0 0 0 0 0 0 0 0 0
0 0 0 0 0 0 0 0 0 0
0 0 0 0 0 0 0 0 0 0
0 0 0 0 0 0 0 0 0 0
0 0 0 0 0 0 0 0 0 0
0 0 0 0 0 0 0 0 0 0
0 0 0 0 0 0 0 0 0 0
0 0 0 0 0 0 0 0 0 0
0 0 0 0 0 0 0 0 0 0
0 0 0 0 0 0 0 0 0 0
0 0 0 0 0 0 0 0 0 0
0 0 0 0 0 0 0 0 0 0
0 0 0 0 0 0 0 0 0 0
0 0 0 0 0 0 0 0 0 0
0 0 0 0 0 0 0 0 0 0
0 0 0 0 0 0 0 0 0 0
0 0 0 0 0 0 0 0 0 0
0 0 0 0 0 0 0 0 0 0
0 0 0 0 0 0 0 0 0 0
0 0 0 0 0 0 0 0 0 0
0 0 0 0 0 0 0 0 0 0
0 0 0 0 0 0 0 0 0 0
0 0 0 0 0 0 0 0 0 0
0 0 0 0 0 0 0 0 0 0
0 0 0 0 0 0 0 0 0 0
0 0 0 0 0 0 0 0 0 0
0 0 0 0 0 0 0 0 0 0
0 0 0 0 0 0 0 0 0 0
0 0 0 0 0 0 0 0 0 0
0 0 0 0 0 0 0 0 
nut 1 449 float
3.12906e-06 1.73378e-06 8.522e-07 4.8414e-07 3.7205e-07 3.41731e-07 3.28718e-07 3.1915e-07 3.19829e-07 3.49533e-07 4.33221e-07
5.14162e-07 5.83104e-07 6.35778e-07 6.72276e-07 6.95345e-07 7.06437e-07 7.09445e-07 7.06519e-07 6.99349e-07 6.9025e-07
6.8052e-07 6.70662e-07 6.60912e-07 6.51387e-07 6.42143e-07 6.33234e-07 6.24693e-07 6.16495e-07 6.08657e-07 6.01185e-07
5.93993e-07 5.87024e-07 5.80268e-07 5.73778e-07 5.67565e-07 5.61638e-07 5.55977e-07 5.50567e-07 5.45388e-07 5.40408e-07
5.35604e-07 5.30956e-07 5.26458e-07 5.22118e-07 5.1793e-07 5.13886e-07 5.09978e-07 5.06209e-07 5.02563e-07 4.99022e-07
4.95574e-07 4.92218e-07 4.88954e-07 4.85778e-07 4.8269e-07 4.79691e-07 4.76775e-07 4.73926e-07 4.71135e-07 4.68405e-07
4.65737e-07 4.63129e-07 4.60583e-07 4.58099e-07 4.55677e-07 4.53312e-07 4.50998e-07 4.48732e-07 4.46511e-07 4.44333e-07
4.42197e-07 4.40104e-07 4.38055e-07 4.36049e-07 4.34083e-07 4.32154e-07 4.30259e-07 4.28397e-07 4.26566e-07 4.24767e-07
4.22999e-07 4.21265e-07 4.19561e-07 4.17887e-07 4.1624e-07 4.14619e-07 4.13022e-07 4.1145e-07 4.09902e-07 4.08378e-07
4.0688e-07 4.05405e-07 4.03952e-07 4.0252e-07 4.01108e-07 3.99716e-07 3.98342e-07 3.96987e-07 3.95652e-07 3.94337e-07
3.9304e-07 3.9176e-07 3.90496e-07 3.89248e-07 3.88017e-07 3.86801e-07 3.85599e-07 3.84414e-07 3.83244e-07 3.82089e-07
3.80948e-07 3.7982e-07 3.78704e-07 3.77602e-07 3.76513e-07 3.75436e-07 3.74372e-07 3.7332e-07 3.72281e-07 3.71253e-07
3.70236e-07 3.69229e-07 3.68233e-07 3.67248e-07 3.66274e-07 3.6531e-07 3.64356e-07 3.63412e-07 3.62478e-07 3.61553e-07
3.60637e-07 3.59729e-07 3.58831e-07 3.57943e-07 3.57063e-07 3.56191e-07 3.55328e-07 3.54473e-07 3.53625e-07 3.52786e-07
3.51953e-07 3.51128e-07 3.50311e-07 3.49502e-07 3.487e-07 3.47905e-07 3.47117e-07 3.46335e-07 3.4556e-07 3.44793e-07
3.44031e-07 3.43276e-07 3.42528e-07 3.41786e-07 3.4105e-07 3.4032e-07 3.39595e-07 3.38877e-07 3.38165e-07 3.37458e-07
3.36757e-07 3.36062e-07 3.35371e-07 3.34687e-07 3.34007e-07 3.33333e-07 3.32664e-07 3.31999e-07 3.3134e-07 3.30686e-07
3.30037e-07 3.29393e-07 3.28789e-07 3.28221e-07 3.27652e-07 3.27082e-07 3.26511e-07 3.25939e-07 3.25366e-07 3.24791e-07
3.24216e-07 3.23639e-07 3.23061e-07 3.22482e-07 3.21902e-07 3.21321e-07 3.20739e-07 3.20156e-07 3.19572e-07 3.18987e-07
3.18401e-07 3.17814e-07 3.17226e-07 3.16637e-07 3.16047e-07 3.15457e-07 3.14866e-07 3.14274e-07 3.13681e-07 3.13087e-07
3.12493e-07 3.11898e-07 3.11302e-07 3.10705e-07 3.10108e-07 3.0951e-07 3.08911e-07 3.08312e-07 3.07712e-07 3.07112e-07
3.06511e-07 3.05909e-07 3.05307e-07 3.04704e-07 3.04101e-07 3.03497e-07 3.0289e-07 3.02282e-07 3.01674e-07 3.01065e-07
3.00456e-07 2.99847e-07 2.99237e-07 2.98627e-07 2.98017e-07 2.97406e-07 2.96796e-07 2.96185e-07 2.95573e-07 2.94962e-07
2.9435e-07 2.93738e-07 2.93126e-07 2.92514e-07 2.91902e-07 2.91289e-07 2.90677e-07 2.90064e-07 2.89452e-07 2.88839e-07
2.88226e-07 2.87614e-07 2.87001e-07 2.86388e-07 2.85776e-07 2.85163e-07 2.84551e-07 2.83939e-07 2.83326e-07 2.82714e-07
2.82102e-07 2.81491e-07 2.80879e-07 2.80268e-07 2.79657e-07 2.79046e-07 2.78435e-07 2.77823e-07 2.77212e-07 2.766e-07
2.7599e-07 2.75379e-07 2.74769e-07 2.74159e-07 2.7355e-07 2.72941e-07 2.72332e-07 2.71724e-07 2.71116e-07 2.70508e-07
2.69902e-07 2.69295e-07 2.68689e-07 2.68084e-07 2.67479e-07 2.66874e-07 2.6627e-07 2.65667e-07 2.65064e-07 2.64462e-07
2.6386e-07 2.63259e-07 2.62659e-07 2.62059e-07 2.6146e-07 2.60862e-07 2.60264e-07 2.59667e-07 2.5907e-07 2.58475e-07
2.5788e-07 2.57285e-07 2.56692e-07 2.56099e-07 2.55507e-07 2.54915e-07 2.54325e-07 2.53735e-07 2.53146e-07 2.52558e-07
2.51971e-07 2.51384e-07 2.50799e-07 2.50214e-07 2.4963e-07 2.49047e-07 2.48464e-07 2.47883e-07 2.47303e-07 2.46723e-07
2.46144e-07 2.45567e-07 2.4499e-07 2.44414e-07 2.43839e-07 2.43265e-07 2.42692e-07 2.4212e-07 2.41549e-07 2.40979e-07
2.4041e-07 2.39842e-07 2.39275e-07 2.38709e-07 2.38144e-07 2.3758e-07 2.37017e-07 2.36455e-07 2.35894e-07 2.35335e-07
2.34776e-07 2.34218e-07 2.33662e-07 2.33106e-07 2.32552e-07 2.31999e-07 2.31446e-07 2.30895e-07 2.30345e-07 2.29796e-07
2.29249e-07 2.28702e-07 2.28157e-07 2.27612e-07 2.27069e-07 2.26527e-07 2.25986e-07 2.25447e-07 2.24908e-07 2.24371e-07
2.23834e-07 2.233e-07 2.22766e-07 2.22173e-07 2.21529e-07 2.20894e-07 2.20269e-07 2.19654e-07 2.19048e-07 2.18451e-07
2.17862e-07 2.17283e-07 2.16711e-07 2.16148e-07 2.15593e-07 2.15045e-07 2.14505e-07 2.13973e-07 2.13447e-07 2.12929e-07
2.12418e-07 2.11913e-07 2.11415e-07 2.10923e-07 2.10438e-07 2.09959e-07 2.09486e-07 2.09019e-07 2.08557e-07 2.08101e-07
2.0765e-07 2.07206e-07 2.06766e-07 2.06331e-07 2.05902e-07 2.05477e-07 2.05057e-07 2.04643e-07 2.04232e-07 2.03827e-07
2.03426e-07 2.03029e-07 2.02636e-07 2.02249e-07 2.01864e-07 2.01485e-07 2.01108e-07 2.00737e-07 2.00368e-07 2.00004e-07
1.99643e-07 1.99286e-07 1.98933e-07 1.98583e-07 1.98236e-07 1.97894e-07 1.97553e-07 1.97217e-07 1.96884e-07 1.96554e-07
1.96227e-07 1.95903e-07 1.95582e-07 1.95265e-07 1.94949e-07 1.94637e-07 1.94327e-07 1.94021e-07 1.93717e-07 1.93416e-07
1.93117e-07 1.92822e-07 1.92527e-07 1.92238e-07 1.91948e-07 1.91663e-07 1.91378e-07 1.91098e-07 1.90817e-07 1.90543e-07
1.90266e-07 1.89996e-07 1.89722e-07 1.89458e-07 1.89188e-07 1.88927e-07 1.88661e-07 1.88404e-07 1.88142e-07 1.87885e-07
1.87633e-07 1.87342e-07 1.87109e-07 1.86755e-07 1.86646e-07 1.86087e-07 1.86303e-07 1.85507e-07 
Cz 1 449 float
0.05 0.05 0.05 0.05 0.05 0.05 0.05 0.05 0.05 0.05 0.05
0.05 0.05 0.05 0.05 0.05 0.05 0.05 0.05 0.05 0.05
0.05 0.05 0.05 0.05 0.05 0.05 0.05 0.05 0.05 0.05
0.05 0.05 0.05 0.05 0.05 0.05 0.05 0.05 0.05 0.05
0.05 0.05 0.05 0.05 0.05 0.05 0.05 0.05 0.05 0.05
0.05 0.05 0.05 0.05 0.05 0.05 0.05 0.05 0.05 0.05
0.05 0.05 0.05 0.05 0.05 0.05 0.05 0.05 0.05 0.05
0.05 0.05 0.05 0.05 0.05 0.05 0.05 0.05 0.05 0.05
0.05 0.05 0.05 0.05 0.05 0.05 0.05 0.05 0.05 0.05
0.05 0.05 0.05 0.05 0.05 0.05 0.05 0.05 0.05 0.05
0.05 0.05 0.05 0.05 0.05 0.05 0.05 0.05 0.05 0.05
0.05 0.05 0.05 0.05 0.05 0.05 0.05 0.05 0.05 0.05
0.05 0.05 0.05 0.05 0.05 0.05 0.05 0.05 0.05 0.05
0.05 0.05 0.05 0.05 0.05 0.05 0.05 0.05 0.05 0.05
0.05 0.05 0.05 0.05 0.05 0.05 0.05 0.05 0.05 0.05
0.05 0.05 0.05 0.05 0.05 0.05 0.05 0.05 0.05 0.05
0.05 0.05 0.05 0.05 0.05 0.05 0.05 0.05 0.05 0.05
0.05 0.05 0.05 0.05 0.05 0.05 0.05 0.05 0.05 0.05
0.05 0.05 0.05 0.05 0.05 0.05 0.05 0.05 0.05 0.05
0.05 0.05 0.05 0.05 0.05 0.05 0.05 0.05 0.05 0.05
0.05 0.05 0.05 0.05 0.05 0.05 0.05 0.05 0.05 0.05
0.05 0.05 0.05 0.05 0.05 0.05 0.05 0.05 0.05 0.05
0.05 0.05 0.05 0.05 0.05 0.05 0.05 0.05 0.05 0.05
0.05 0.05 0.05 0.05 0.05 0.05 0.05 0.05 0.05 0.05
0.05 0.05 0.05 0.05 0.05 0.05 0.05 0.05 0.05 0.05
0.05 0.05 0.05 0.05 0.05 0.05 0.05 0.05 0.05 0.05
0.05 0.05 0.05 0.05 0.05 0.05 0.05 0.05 0.05 0.05
0.05 0.05 0.05 0.05 0.05 0.05 0.05 0.05 0.05 0.05
0.05 0.05 0.05 0.05 0.05 0.05 0.05 0.05 0.05 0.05
0.05 0.05 0.05 0.05 0.05 0.05 0.05 0.05 0.05 0.05
0.05 0.05 0.05 0.05 0.05 0.05 0.05 0.05 0.05 0.05
0.05 0.05 0.05 0.05 0.05 0.05 0.05 0.05 0.05 0.05
0.05 0.05 0.05 0.05 0.05 0.05 0.05 0.05 0.05 0.05
0.05 0.05 0.05 0.05 0.05 0.05 0.05 0.05 0.05 0.05
0.05 0.05 0.05 0.05 0.05 0.05 0.05 0.05 0.05 0.05
0.05 0.05 0.05 0.05 0.05 0.05 0.05 0.05 0.05 0.05
0.05 0.05 0.05 0.05 0.05 0.05 0.05 0.05 0.05 0.05
0.05 0.05 0.05 0.05 0.05 0.05 0.05 0.05 0.05 0.05
0.05 0.05 0.05 0.05 0.05 0.05 0.05 0.05 0.05 0.05
0.05 0.05 0.05 0.05 0.05 0.05 0.05 0.05 0.05 0.05
0.05 0.05 0.05 0.05 0.05 0.05 0.05 0.05 0.05 0.05
0.05 0.05 0.05 0.05 0.05 0.05 0.05 0.05 0.05 0.05
0.05 0.05 0.05 0.05 0.05 0.05 0.05 0.05 0.05 0.05
0.05 0.05 0.05 0.05 0.05 0.05 0.05 0.05 0.05 0.05
0.05 0.05 0.05 0.05 0.05 0.05 0.05 0.05 
p 1 449 float
87.1919 55.2981 19.3485 1.81535 3.27411 11.4752 16.4709 16.9419 16.0898 17.7903 23.9161
30.8246 34.1548 34.6285 34.2182 33.5442 32.6447 31.6072 30.5539 29.5602 28.6735
27.9095 27.2601 26.6978 26.1908 25.735 25.3293 24.9598 24.6204 24.3148 24.037
23.7718 23.5199 23.2824 23.0559 22.8459 22.6543 22.4762 22.3075 22.1509 22.0028
21.858 21.7169 21.5831 21.4564 21.3332 21.2151 21.1044 20.9994 20.8964 20.7957
20.6985 20.6036 20.51 20.4195 20.3333 20.2504 20.1694 20.0896 20.0114 19.9346
19.8584 19.7838 19.7122 19.6432 19.5752 19.5088 19.444 19.3806 19.3172 19.2545
19.1932 19.1337 19.0753 19.0178 18.9613 18.906 18.8514 18.7968 18.7427 18.69
18.6385 18.5875 18.5371 18.4874 18.4387 18.3903 18.342 18.2941 18.2473 18.2015
18.156 18.1107 18.066 18.022 17.9784 17.9347 17.8915 17.849 17.8074 17.766
17.7247 17.6837 17.6433 17.6035 17.5636 17.5239 17.4848 17.4464 17.4083 17.3701
17.3322 17.2947 17.2576 17.2208 17.184 17.1476 17.1117 17.0762 17.0406 17.0052
16.97 16.9352 16.9008 16.8665 16.8323 16.7983 16.7647 16.7315 16.6981 16.6649
16.6319 16.5993 16.5671 16.5348 16.5026 16.4705 16.4389 16.4075 16.376 16.3446
16.3135 16.2827 16.2521 16.2215 16.1909 16.1605 16.1304 16.1006 16.0707 16.0409
16.0113 15.9819 15.9527 15.9235 15.8944 15.8653 15.8366 15.8081 15.7795 15.751
15.7226 15.6944 15.6664 15.6384 15.6105 15.5827 15.555 15.5276 15.5002 15.4729
15.4455 15.4186 15.3927 15.368 15.3441 15.3198 15.2953 15.2706 15.246 15.2212
15.1961 15.1709 15.1455 15.1201 15.0946 15.0688 15.0429 15.0168 14.9906 14.9643
14.9379 14.9113 14.8845 14.8575 14.8305 14.8034 14.776 14.7484 14.7207 14.693
14.6651 14.6369 14.6086 14.5801 14.5516 14.5229 14.494 14.4649 14.4357 14.4064
14.3768 14.3471 14.3171 14.2872 14.2571 14.2267 14.196 14.1652 14.1343 14.1033
14.072 14.0406 14.0091 13.9775 13.9455 13.9135 13.8814 13.8491 13.8164 13.7837
13.7508 13.7178 13.6846 13.6511 13.6175 13.5838 13.5497 13.5156 13.4813 13.4468
13.412 13.3771 13.342 13.3068 13.2712 13.2355 13.1997 13.1635 13.1272 13.0908
13.0541 13.0171 12.98 12.9428 12.9052 12.8673 12.8294 12.7912 12.7527 12.7141
12.6753 12.6362 12.5969 12.5575 12.5177 12.4777 12.4375 12.3971 12.3563 12.3155
12.2743 12.2328 12.1913 12.1494 12.1071 12.0648 12.0222 11.9792 11.936 11.8927
11.8489 11.8049 11.7607 11.7161 11.6713 11.6263 11.5808 11.5352 11.4894 11.443
11.3965 11.3497 11.3025 11.2551 11.2074 11.1592 11.1109 11.0622 11.0131 10.9639
10.9141 10.8641 10.8138 10.763 10.7121 10.6607 10.6089 10.5569 10.5044 10.4515
10.3984 10.3448 10.2909 10.2366 10.1818 10.1268 10.0712 10.0154 9.95913 9.90232
9.84528 9.78768 9.72972 9.6714 9.61249 9.55329 9.4935 9.4334 9.37281 9.31167
9.2502 9.18811 9.12565 9.06268 8.99919 8.93528 8.87076 8.80585 8.7403 8.67435
8.60784 8.54075 8.4732 8.40503 8.33636 8.26711 8.19729 8.12694 8.05588 7.98444
7.91192 7.83963 7.76463 7.68441 7.59544 7.50338 7.41356 7.32337 7.23372 7.14424
7.05506 6.9661 6.87735 6.78885 6.70051 6.61245 6.52452 6.43689 6.34936 6.2621
6.17489 6.08798 6.00111 5.91457 5.82807 5.74192 5.65581 5.56999 5.48425 5.3987
5.31326 5.22801 5.14285 5.0579 4.97303 4.88841 4.80378 4.71949 4.63512 4.55112
4.46708 4.38333 4.29961 4.21612 4.13265 4.04948 3.96625 3.88341 3.80042 3.71786
3.63519 3.55286 3.47052 3.38847 3.30636 3.22471 3.14282 3.06146 2.97995 2.89882
2.81763 2.73688 2.65595 2.57558 2.49497 2.41494 2.33474 2.25505 2.1752 2.09601
2.01649 1.93773 1.85875 1.78041 1.70189 1.62419 1.54614 1.46904 1.39171 1.31526
1.23865 1.16301 1.08743 1.01246 0.938635 0.863739 0.793604 0.715978 0.656194 0.564962
0.537937 0.39348 0.477909 0.141412 0.599957 -0.394241 1.23335 -1.69509 
k 1 449 float
7.8464e-05 1.75931e-05 1.57475e-05 4.13305e-05 0.000182864 0.000871621 0.004099 0.0183245 0.0799274 0.316711 1.16957
1.7763 2.19493 2.48583 2.67598 2.78576 2.80943 2.80875 2.80302 2.77198 2.73428
2.69759 2.66082 2.62465 2.58958 2.55578 2.52341 2.49254 2.46275 2.43446 2.40753
2.3811 2.3552 2.33002 2.30614 2.2833 2.26166 2.24082 2.22091 2.20173 2.18302
2.16476 2.14698 2.12972 2.11304 2.09689 2.08129 2.06614 2.05154 2.03727 2.0233
2.00959 1.99621 1.98315 1.97045 1.95808 1.94605 1.93434 1.92279 1.91143 1.90027
1.88936 1.87867 1.86824 1.85805 1.84811 1.83839 1.82884 1.81945 1.81021 1.80113
1.79222 1.7835 1.77494 1.76656 1.75834 1.75025 1.74227 1.73442 1.72669 1.71909
1.71162 1.70429 1.69709 1.69 1.683 1.67611 1.66931 1.66261 1.656 1.64951
1.64311 1.63682 1.63061 1.62448 1.61842 1.61244 1.60655 1.60073 1.595 1.58935
1.58377 1.57826 1.57281 1.56744 1.56212 1.55687 1.55168 1.54656 1.54151 1.53652
1.53158 1.52669 1.52186 1.51708 1.51236 1.50769 1.50307 1.49851 1.494 1.48953
1.48511 1.48073 1.4764 1.47212 1.46788 1.46368 1.45953 1.45542 1.45135 1.44731
1.44332 1.43936 1.43544 1.43156 1.42772 1.42392 1.42015 1.41641 1.41271 1.40903
1.40539 1.40178 1.39821 1.39467 1.39116 1.38768 1.38422 1.3808 1.3774 1.37404
1.3707 1.36739 1.36411 1.36086 1.35763 1.35443 1.35125 1.3481 1.34497 1.34187
1.33879 1.33574 1.33271 1.3297 1.32671 1.32375 1.32081 1.31789 1.315 1.31212
1.30927 1.30643 1.30378 1.30128 1.29878 1.29627 1.29376 1.29124 1.28872 1.28619
1.28366 1.28112 1.27858 1.27603 1.27348 1.27092 1.26836 1.26579 1.26322 1.26064
1.25806 1.25547 1.25288 1.25029 1.24769 1.24509 1.24249 1.23988 1.23726 1.23465
1.23203 1.2294 1.22678 1.22415 1.22151 1.21888 1.21624 1.2136 1.21095 1.2083
1.20565 1.203 1.20035 1.19769 1.19503 1.19236 1.18968 1.187 1.18432 1.18163
1.17895 1.17626 1.17357 1.17088 1.16819 1.1655 1.1628 1.1601 1.15741 1.15471
1.15201 1.14931 1.14661 1.14391 1.14121 1.1385 1.1358 1.1331 1.13039 1.12769
1.12499 1.12228 1.11958 1.11688 1.11417 1.11147 1.10876 1.10606 1.10336 1.10066
1.09796 1.09526 1.09256 1.08986 1.08716 1.08447 1.08177 1.07906 1.07636 1.07366
1.07095 1.06825 1.06555 1.06286 1.06016 1.05747 1.05477 1.05208 1.0494 1.04671
1.04403 1.04134 1.03866 1.03599 1.03331 1.03064 1.02797 1.0253 1.02263 1.01997
1.01731 1.01465 1.012 1.00935 1.0067 1.00405 1.00141 0.998771 0.996134 0.993501
0.990871 0.988245 0.985621 0.983002 0.980386 0.977773 0.975164 0.972558 0.969956 0.967358
0.964763 0.962173 0.959586 0.957003 0.954424 0.951849 0.949278 0.946712 0.944149 0.94159
0.939036 0.936486 0.93394 0.931399 0.928861 0.926329 0.9238 0.921277 0.918757 0.916243
0.913732 0.911227 0.908726 0.90623 0.903738 0.901252 0.89877 0.896293 0.89382 0.891353
0.88889 0.886433 0.88398 0.881533 0.87909 0.876654 0.874221 0.871794 0.869371 0.866955
0.864543 0.862137 0.859735 0.85734 0.854949 0.852564 0.850183 0.84781 0.84544 0.843077
0.840717 0.838367 0.836017 0.833415 0.830579 0.827791 0.825043 0.82234 0.819675 0.817054
0.814468 0.811923 0.809412 0.806941 0.804501 0.8021 0.799728 0.797393 0.795086 0.792814
0.790568 0.788357 0.78617 0.784017 0.781887 0.779788 0.777712 0.775666 0.773642 0.771646
0.769671 0.767724 0.765795 0.763895 0.762012 0.760155 0.758316 0.756502 0.754704 0.752932
0.751174 0.749441 0.747721 0.746026 0.744344 0.742685 0.741039 0.739415 0.737803 0.736213
0.734634 0.733076 0.731529 0.730003 0.728487 0.726991 0.725504 0.724039 0.72258 0.721143
0.719712 0.718302 0.716897 0.715514 0.714135 0.712778 0.711424 0.710091 0.708761 0.707453
0.706145 0.704861 0.703575 0.702315 0.701049 0.699812 0.698565 0.697351 0.696122 0.694932
0.693719 0.692552 0.691354 0.69021 0.689024 0.687905 0.686729 0.685634 0.684468 0.683393
0.682241 0.680979 0.679742 0.678358 0.677394 0.675566 0.675301 0.672741 
omega 1 449 float
1.82686e+06 1.82686e+06 1.82686e+06 1.82686e+06 1.82686e+06 1.82686e+06 1.82689e+06 1.82702e+06 1.82757e+06 1.82968e+06 1.83727e+06
1.84264e+06 1.84635e+06 1.84892e+06 1.8506e+06 1.85156e+06 1.85177e+06 1.85176e+06 1.85171e+06 1.85144e+06 1.85111e+06
1.85078e+06 1.85046e+06 1.85014e+06 1.84983e+06 1.84953e+06 1.84925e+06 1.84898e+06 1.84871e+06 1.84846e+06 1.84823e+06
1.84799e+06 1.84776e+06 1.84754e+06 1.84733e+06 1.84713e+06 1.84694e+06 1.84675e+06 1.84658e+06 1.84641e+06 1.84624e+06
1.84608e+06 1.84593e+06 1.84577e+06 1.84563e+06 1.84548e+06 1.84534e+06 1.84521e+06 1.84508e+06 1.84496e+06 1.84483e+06
1.84471e+06 1.84459e+06 1.84448e+06 1.84436e+06 1.84426e+06 1.84415e+06 1.84405e+06 1.84394e+06 1.84384e+06 1.84374e+06
1.84365e+06 1.84355e+06 1.84346e+06 1.84337e+06 1.84328e+06 1.8432e+06 1.84311e+06 1.84303e+06 1.84295e+06 1.84287e+06
1.84279e+06 1.84271e+06 1.84264e+06 1.84256e+06 1.84249e+06 1.84242e+06 1.84235e+06 1.84228e+06 1.84221e+06 1.84214e+06
1.84207e+06 1.84201e+06 1.84195e+06 1.84188e+06 1.84182e+06 1.84176e+06 1.8417e+06 1.84164e+06 1.84158e+06 1.84152e+06
1.84147e+06 1.84141e+06 1.84136e+06 1.8413e+06 1.84125e+06 1.8412e+06 1.84114e+06 1.84109e+06 1.84104e+06 1.84099e+06
1.84094e+06 1.84089e+06 1.84084e+06 1.8408e+06 1.84075e+06 1.8407e+06 1.84066e+06 1.84061e+06 1.84057e+06 1.84052e+06
1.84048e+06 1.84044e+06 1.84039e+06 1.84035e+06 1.84031e+06 1.84027e+06 1.84023e+06 1.84019e+06 1.84015e+06 1.84011e+06
1.84007e+06 1.84003e+06 1.83999e+06 1.83995e+06 1.83991e+06 1.83988e+06 1.83984e+06 1.8398e+06 1.83977e+06 1.83973e+06
1.8397e+06 1.83966e+06 1.83963e+06 1.83959e+06 1.83956e+06 1.83952e+06 1.83949e+06 1.83946e+06 1.83943e+06 1.83939e+06
1.83936e+06 1.83933e+06 1.8393e+06 1.83927e+06 1.83923e+06 1.8392e+06 1.83917e+06 1.83914e+06 1.83911e+06 1.83908e+06
1.83905e+06 1.83902e+06 1.83899e+06 1.83897e+06 1.83894e+06 1.83891e+06 1.83888e+06 1.83885e+06 1.83882e+06 1.8388e+06
1.83877e+06 1.83874e+06 1.83872e+06 1.83869e+06 1.83866e+06 1.83864e+06 1.83861e+06 1.83858e+06 1.83856e+06 1.83853e+06
1.83851e+06 1.83848e+06 1.83846e+06 1.83844e+06 1.83842e+06 1.83839e+06 1.83837e+06 1.83835e+06 1.83833e+06 1.8383e+06
1.83828e+06 1.83826e+06 1.83824e+06 1.83821e+06 1.83819e+06 1.83817e+06 1.83815e+06 1.83812e+06 1.8381e+06 1.83808e+06
1.83805e+06 1.83803e+06 1.83801e+06 1.83798e+06 1.83796e+06 1.83794e+06 1.83792e+06 1.83789e+06 1.83787e+06 1.83785e+06
1.83782e+06 1.8378e+06 1.83778e+06 1.83775e+06 1.83773e+06 1.83771e+06 1.83768e+06 1.83766e+06 1.83764e+06 1.83761e+06
1.83759e+06 1.83756e+06 1.83754e+06 1.83752e+06 1.83749e+06 1.83747e+06 1.83745e+06 1.83742e+06 1.8374e+06 1.83738e+06
1.83735e+06 1.83733e+06 1.8373e+06 1.83728e+06 1.83726e+06 1.83723e+06 1.83721e+06 1.83718e+06 1.83716e+06 1.83714e+06
1.83711e+06 1.83709e+06 1.83706e+06 1.83704e+06 1.83702e+06 1.83699e+06 1.83697e+06 1.83694e+06 1.83692e+06 1.8369e+06
1.83687e+06 1.83685e+06 1.83682e+06 1.8368e+06 1.83678e+06 1.83675e+06 1.83673e+06 1.8367e+06 1.83668e+06 1.83666e+06
1.83663e+06 1.83661e+06 1.83658e+06 1.83656e+06 1.83654e+06 1.83651e+06 1.83649e+06 1.83646e+06 1.83644e+06 1.83642e+06
1.83639e+06 1.83637e+06 1.83634e+06 1.83632e+06 1.8363e+06 1.83627e+06 1.83625e+06 1.83622e+06 1.8362e+06 1.83618e+06
1.83615e+06 1.83613e+06 1.83611e+06 1.83608e+06 1.83606e+06 1.83603e+06 1.83601e+06 1.83599e+06 1.83596e+06 1.83594e+06
1.83592e+06 1.83589e+06 1.83587e+06 1.83585e+06 1.83582e+06 1.8358e+06 1.83577e+06 1.83575e+06 1.83573e+06 1.8357e+06
1.83568e+06 1.83566e+06 1.83563e+06 1.83561e+06 1.83559e+06 1.83556e+06 1.83554e+06 1.83552e+06 1.8355e+06 1.83547e+06
1.83545e+06 1.83543e+06 1.8354e+06 1.83538e+06 1.83536e+06 1.83533e+06 1.83531e+06 1.83529e+06 1.83527e+06 1.83524e+06
1.83522e+06 1.8352e+06 1.83518e+06 1.83515e+06 1.83513e+06 1.83511e+06 1.83508e+06 1.83506e+06 1.83504e+06 1.83502e+06
1.835e+06 1.83497e+06 1.83495e+06 1.83493e+06 1.83491e+06 1.83488e+06 1.83486e+06 1.83484e+06 1.83482e+06 1.8348e+06
1.83477e+06 1.83475e+06 1.83473e+06 1.83471e+06 1.83469e+06 1.83467e+06 1.83464e+06 1.83462e+06 1.8346e+06 1.83458e+06
1.83456e+06 1.83454e+06 1.83452e+06 1.83449e+06 1.83447e+06 1.83445e+06 1.83443e+06 1.83441e+06 1.83439e+06 1.83437e+06
1.83435e+06 1.83433e+06 1.8343e+06 1.83428e+06 1.83426e+06 1.83423e+06 1.83421e+06 1.83418e+06 1.83416e+06 1.83414e+06
1.83411e+06 1.83409e+06 1.83407e+06 1.83405e+06 1.83402e+06 1.834e+06 1.83398e+06 1.83396e+06 1.83394e+06 1.83392e+06
1.8339e+06 1.83388e+06 1.83386e+06 1.83384e+06 1.83382e+06 1.8338e+06 1.83379e+06 1.83377e+06 1.83375e+06 1.83373e+06
1.83371e+06 1.8337e+06 1.83368e+06 1.83366e+06 1.83365e+06 1.83363e+06 1.83361e+06 1.8336e+06 1.83358e+06 1.83357e+06
1.83355e+06 1.83353e+06 1.83352e+06 1.8335e+06 1.83349e+06 1.83347e+06 1.83346e+06 1.83345e+06 1.83343e+06 1.83342e+06
1.8334e+06 1.83339e+06 1.83338e+06 1.83336e+06 1.83335e+06 1.83333e+06 1.83332e+06 1.83331e+06 1.8333e+06 1.83328e+06
1.83327e+06 1.83326e+06 1.83324e+06 1.83323e+06 1.83322e+06 1.83321e+06 1.8332e+06 1.83318e+06 1.83317e+06 1.83316e+06
1.83315e+06 1.83314e+06 1.83313e+06 1.83312e+06 1.8331e+06 1.83309e+06 1.83308e+06 1.83307e+06 1.83306e+06 1.83305e+06
1.83304e+06 1.83303e+06 1.83302e+06 1.83301e+06 1.833e+06 1.83299e+06 1.83298e+06 1.83297e+06 1.83296e+06 1.83295e+06
1.83294e+06 1.83293e+06 1.83291e+06 1.8329e+06 1.83289e+06 1.83288e+06 1.83287e+06 1.83285e+06 
Cx 1 449 float
0.000485708 0.00145827 0.00243313 0.00341029 0.00438975 0.00537153 0.00635563 0.00734204 0.00833079 0.00932187 0.0103153
0.011311 0.0123092 0.0133096 0.0143125 0.0153177 0.0163252 0.0173352 0.0183475 0.0193622 0.0203793
0.0213988 0.0224208 0.0234451 0.0244718 0.025501 0.0265326 0.0275667 0.0286031 0.0296421 0.0306834
0.0317273 0.0327736 0.0338223 0.0348736 0.0359273 0.0369835 0.0380422 0.0391034 0.0401671 0.0412333
0.0423021 0.0433733 0.0444471 0.0455234 0.0466023 0.0476837 0.0487676 0.0498542 0.0509432 0.0520349
0.0531291 0.0542259 0.0553253 0.0564273 0.0575319 0.0586391 0.0597489 0.0608614 0.0619764 0.0630941
0.0642144 0.0653374 0.066463 0.0675913 0.0687222 0.0698559 0.0709921 0.0721311 0.0732728 0.0744171
0.0755642 0.0767139 0.0778664 0.0790216 0.0801795 0.0813402 0.0825035 0.0836697 0.0848386 0.0860102
0.0871846 0.0883618 0.0895418 0.0907245 0.0919101 0.0930984 0.0942895 0.0954835 0.0966803 0.0978799
0.0990823 0.100288 0.101496 0.102707 0.10392 0.105137 0.106357 0.107579 0.108804 0.110033
0.111264 0.112498 0.113735 0.114975 0.116217 0.117463 0.118712 0.119963 0.121218 0.122475
0.123736 0.124999 0.126266 0.127535 0.128808 0.130083 0.131361 0.132643 0.133927 0.135215
0.136505 0.137799 0.139096 0.140395 0.141698 0.143004 0.144313 0.145625 0.14694 0.148258
0.149579 0.150904 0.152231 0.153562 0.154896 0.156233 0.157573 0.158916 0.160263 0.161613
0.162965 0.164321 0.165681 0.167043 0.168409 0.169778 0.17115 0.172525 0.173904 0.175286
0.176671 0.178059 0.179451 0.180846 0.182244 0.183646 0.18505 0.186459 0.18787 0.189285
0.190703 0.192124 0.193549 0.194978 0.196409 0.197844 0.199282 0.200724 0.202169 0.203618
0.20507 0.206525 0.207903 0.209207 0.210526 0.211859 0.213207 0.214569 0.215947 0.217339
0.218746 0.220168 0.221606 0.22306 0.224529 0.226015 0.227516 0.229034 0.230569 0.23212
0.233687 0.235272 0.236875 0.238494 0.240131 0.241786 0.243459 0.24515 0.24686 0.248588
0.250335 0.252101 0.253886 0.25569 0.257514 0.259358 0.261222 0.263106 0.265011 0.266937
0.268883 0.27085 0.272839 0.27485 0.276882 0.278936 0.281013 0.283113 0.285235 0.28738
0.289548 0.291741 0.293956 0.296196 0.298461 0.30075 0.303064 0.305403 0.307767 0.310157
0.312573 0.315016 0.317485 0.31998 0.322503 0.325053 0.327632 0.330238 0.332872 0.335535
0.338227 0.340948 0.343699 0.346479 0.34929 0.352132 0.355004 0.357908 0.360843 0.36381
0.366809 0.369841 0.372906 0.376004 0.379136 0.382302 0.385502 0.388737 0.392007 0.395313
0.398654 0.402032 0.405447 0.408899 0.412388 0.415916 0.419481 0.423086 0.426729 0.430412
0.434136 0.437899 0.441704 0.44555 0.449437 0.453367 0.45734 0.461356 0.465415 0.469519
0.473667 0.477861 0.4821 0.486385 0.490716 0.495095 0.499521 0.503995 0.508518 0.51309
0.517712 0.522384 0.527107 0.531881 0.536707 0.541586 0.546518 0.551503 0.556542 0.561636
0.566786 0.571991 0.577253 0.582572 0.587949 0.593385 0.59888 0.604434 0.610048 0.615724
0.621462 0.627261 0.633124 0.639051 0.645042 0.651098 0.657219 0.663408 0.669664 0.675987
0.68238 0.688842 0.695374 0.701977 0.708652 0.715399 0.72222 0.729115 0.736085 0.74313
0.750252 0.757452 0.76473 0.772087 0.779524 0.787042 0.794641 0.802323 0.810089 0.817939
0.825874 0.833896 0.842004 0.850201 0.858487 0.866863 0.87533 0.883889 0.892542 0.901288
0.910129 0.919066 0.928101 0.93826 0.949495 0.960731 0.971966 0.983202 0.994437 1.00567
1.01691 1.02814 1.03938 1.05061 1.06185 1.07308 1.08432 1.09555 1.10679 1.11803
1.12926 1.1405 1.15173 1.16297 1.1742 1.18544 1.19667 1.20791 1.21914 1.23038
1.24161 1.25285 1.26409 1.27532 1.28656 1.29779 1.30903 1.32026 1.3315 1.34273
1.35397 1.3652 1.37644 1.38767 1.39891 1.41014 1.42138 1.43262 1.44385 1.45509
1.46632 1.47756 1.48879 1.50003 1.51126 1.5225 1.53373 1.54497 1.5562 1.56744
1.57867 1.58991 1.60115 1.61238 1.62362 1.63485 1.64609 1.65732 1.66856 1.67979
1.69103 1.70226 1.7135 1.72473 1.73597 1.7472 1.75844 1.76968 1.78091 1.79215
1.80338 1.81462 1.82585 1.83709 1.84832 1.85956 1.87079 1.88203 1.89326 1.9045
1.91573 1.92697 1.93821 1.94944 1.96068 1.97191 1.98315 1.99438 
yPlus 1 449 float
10.9912 8.735 6.85924 5.73736 5.29016 5.1542 5.09336 5.0476 5.05087 5.18993 5.54364
5.8455 6.07956 6.24701 6.35811 6.42647 6.45885 6.46759 6.45909 6.43819 6.41149
6.3827 6.35328 6.32392 6.29498 6.26665 6.23912 6.2125 6.18673 6.1619 6.13805
6.11491 6.09233 6.07028 6.04895 6.02838 6.00863 5.98964 5.97139 5.95381 5.9368
5.9203 5.90425 5.88863 5.87348 5.85878 5.84452 5.83067 5.81725 5.80421 5.79148
5.77903 5.76687 5.75498 5.74337 5.73203 5.72097 5.71018 5.69959 5.68918 5.67896
5.66893 5.6591 5.64946 5.64002 5.63079 5.62174 5.61286 5.60414 5.59556 5.58712
5.57881 5.57065 5.56264 5.55477 5.54704 5.53942 5.53192 5.52453 5.51725 5.51006
5.50299 5.49603 5.48918 5.48242 5.47576 5.46919 5.4627 5.45629 5.44996 5.44372
5.43757 5.4315 5.42551 5.41958 5.41373 5.40795 5.40223 5.39657 5.39099 5.38548
5.38003 5.37464 5.36931 5.36404 5.35882 5.35365 5.34854 5.34349 5.33849 5.33355
5.32866 5.32381 5.31901 5.31425 5.30954 5.30488 5.30026 5.29569 5.29117 5.28668
5.28224 5.27783 5.27346 5.26913 5.26484 5.26059 5.25637 5.2522 5.24806 5.24395
5.23988 5.23583 5.23182 5.22785 5.22391 5.22 5.21612 5.21228 5.20846 5.20467
5.2009 5.19717 5.19346 5.18979 5.18614 5.18252 5.17892 5.17535 5.1718 5.16828
5.16479 5.16131 5.15787 5.15445 5.15105 5.14767 5.14432 5.14099 5.13768 5.1344
5.13113 5.12789 5.12466 5.12146 5.11828 5.11512 5.11198 5.10885 5.10575 5.10267
5.0996 5.09656 5.0937 5.09101 5.08831 5.0856 5.08289 5.08017 5.07743 5.07469
5.07194 5.06918 5.06642 5.06364 5.06085 5.05806 5.05526 5.05245 5.04963 5.04681
5.04397 5.04113 5.03828 5.03543 5.03256 5.02969 5.02681 5.02392 5.02102 5.01812
5.0152 5.01229 5.00936 5.00643 5.00349 5.00054 4.99759 4.99463 4.99166 4.98868
4.9857 4.98271 4.97972 4.97671 4.97371 4.97069 4.96765 4.96461 4.96156 4.9585
4.95544 4.95237 4.9493 4.94622 4.94313 4.94004 4.93694 4.93384 4.93073 4.92762
4.9245 4.92137 4.91824 4.91511 4.91197 4.90882 4.90567 4.90252 4.89936 4.8962
4.89303 4.88985 4.88668 4.88349 4.88031 4.87712 4.87392 4.87072 4.86752 4.86431
4.8611 4.85788 4.85466 4.85144 4.84822 4.84499 4.84175 4.83851 4.83526 4.83201
4.82875 4.8255 4.82224 4.81897 4.81571 4.81244 4.80917 4.80589 4.80261 4.79933
4.79605 4.79277 4.78948 4.78619 4.7829 4.7796 4.77631 4.77301 4.76971 4.7664
4.7631 4.75979 4.75648 4.75317 4.74986 4.74655 4.74324 4.73992 4.7366 4.73328
4.72996 4.72664 4.72332 4.72 4.71667 4.71335 4.71002 4.70669 4.70336 4.70004
4.69671 4.69338 4.69004 4.68671 4.68338 4.68005 4.67672 4.67338 4.67005 4.66672
4.66339 4.66005 4.65672 4.65339 4.65005 4.64672 4.64339 4.64005 4.63672 4.63339
4.63006 4.62673 4.6234 4.62007 4.61674 4.61341 4.61008 4.60675 4.60342 4.6001
4.59677 4.59345 4.59013 4.58681 4.58348 4.58016 4.57685 4.57353 4.57021 4.5669
4.56358 4.56027 4.55696 4.55365 4.55034 4.54704 4.54373 4.54043 4.53713 4.53383
4.53053 4.52724 4.52394 4.52028 4.51629 4.51235 4.50847 4.50463 4.50085 4.49712
4.49343 4.48979 4.48619 4.48265 4.47914 4.47568 4.47226 4.46888 4.46554 4.46224
4.45898 4.45576 4.45257 4.44942 4.44631 4.44323 4.44018 4.43717 4.43418 4.43124
4.42832 4.42543 4.42257 4.41975 4.41694 4.41418 4.41143 4.40872 4.40603 4.40337
4.40073 4.39812 4.39553 4.39297 4.39043 4.38792 4.38543 4.38296 4.38052 4.3781
4.37569 4.37331 4.37095 4.36862 4.36629 4.364 4.36172 4.35946 4.35722 4.355
4.35279 4.35061 4.34844 4.34629 4.34415 4.34204 4.33994 4.33786 4.33579 4.33374
4.3317 4.32969 4.32768 4.3257 4.32372 4.32177 4.31981 4.31789 4.31596 4.31407
4.31216 4.3103 4.30841 4.30658 4.30472 4.30292 4.30107 4.29929 4.29747 4.29569
4.29394 4.29191 4.29029 4.28782 4.28706 4.28315 4.28466 4.27908 
wallShearStress 3 449 float
-38.2913 -0.652221 0 -24.18 -0.543626 0 -14.9088 -0.274725 0 -10.4314 -0.0612253
0 -8.86981 0.0274261 0 -8.42045 0.0317549 0 -8.22289 0.0155176 0
-8.07554 0.0107202 0 -8.08572 0.024563 0 -8.53699 0.0583668 0 -9.74061
0.0777362 0 -10.8306 0.0659042 0 -11.7153 0.0487188 0 -12.3695 0.0344111
0 -12.8134 0.0233991 0 -13.0904 0.0144061 0 -13.2226 0.00727743 0
-13.2584 0.00230804 0 -13.2235 -0.00128591 0 -13.1381 -0.00352729 0 -13.0293
-0.00449395 0 -12.9126 -0.00481961 0 -12.7938 -0.00488329 0 -12.6758 -0.0048294
0 -12.5601 -0.00473181 0 -12.4473 -0.00459913 0 -12.3381 -0.00443219 0
-12.2331 -0.00426295 0 -12.1318 -0.004097 0 -12.0346 -0.00391687 0 -11.9416
-0.00375487 0 -11.8518 -0.00364041 0 -11.7644 -0.00352625 0 -11.6794 -0.00338894
0 -11.5975 -0.00325133 0 -11.5187 -0.00310943 0 -11.4434 -0.0029677 0
-11.3712 -0.00283603 0 -11.302 -0.00271527 0 -11.2355 -0.00260633 0 -11.1714
-0.00251301 0 -11.1094 -0.00243415 0 -11.0493 -0.00236239 0 -10.9909 -0.00228703
0 -10.9344 -0.00220826 0 -10.8797 -0.00213392 0 -10.8268 -0.00206385 0
-10.7756 -0.00199302 0 -10.726 -0.00192463 0 -10.678 -0.00186768 0 -10.6312
-0.00181978 0 -10.5856 -0.00177402 0 -10.541 -0.00172798 0 -10.4976 -0.0016828
0 -10.4553 -0.0016376 0 -10.4141 -0.00159166 0 -10.3739 -0.00154631 0
-10.3348 -0.00150877 0 -10.2965 -0.00147909 0 -10.2589 -0.00144978 0 -10.2221
-0.00141838 0 -10.1861 -0.00138683 0 -10.1507 -0.00135529 0 -10.1162 -0.00132213
0 -10.0824 -0.00128838 0 -10.0494 -0.0012567 0 -10.0172 -0.00122815 0
-9.98556 -0.00120219 0 -9.95454 -0.00117768 0 -9.92409 -0.00115501 0 -9.89417
-0.001133 0 -9.86478 -0.00111016 0 -9.83594 -0.00108635 0 -9.80766 -0.00106274
0 -9.77993 -0.00104043 0 -9.75271 -0.00102016 0 -9.72595 -0.00100093 0
-9.69964 -0.000982703 0 -9.67375 -0.000965926 0 -9.64824 -0.000949524 0 -9.62314
-0.00093223 0 -9.59845 -0.000914084 0 -9.57418 -0.000896592 0 -9.55032 -0.000880206
0 -9.52683 -0.000865198 0 -9.50369 -0.000850642 0 -9.48088 -0.000836672 0
-9.4584 -0.000823599 0 -9.43622 -0.000810786 0 -9.41435 -0.000797427 0 -9.39281
-0.000783245 0 -9.37159 -0.000769697 0 -9.35068 -0.000757326 0 -9.33005 -0.0007459
0 -9.30969 -0.000734549 0 -9.2896 -0.000723478 0 -9.26976 -0.000713083 0
-9.25017 -0.000702926 0 -9.23081 -0.000692231 0 -9.21172 -0.000680907 0 -9.19289
-0.000670248 0 -9.1743 -0.000660551 0 -9.15593 -0.000651667 0 -9.13777 -0.000642638
0 -9.11983 -0.000633448 0 -9.1021 -0.000624922 0 -9.08457 -0.000616579 0
-9.06723 -0.000608045 0 -9.0501 -0.000599084 0 -9.03318 -0.000590371 0 -9.01647
-0.000582528 0 -8.99993 -0.000575255 0 -8.98355 -0.000568076 0 -8.96736 -0.000560619
0 -8.95133 -0.000553381 0 -8.93548 -0.000546325 0 -8.91979 -0.000539309 0
-8.90427 -0.00053219 0 -8.88892 -0.000525059 0 -8.87373 -0.000518524 0 -8.8587
-0.00051244 0 -8.8438 -0.000506619 0 -8.82904 -0.000500576 0 -8.81443 -0.00049426
0 -8.79997 -0.000488183 0 -8.78565 -0.000482291 0 -8.77147 -0.000476665 0
-8.75742 -0.000470941 0 -8.74351 -0.000465212 0 -8.72973 -0.000460017 0 -8.71607
-0.000455021 0 -8.70253 -0.000450174 0 -8.6891 -0.000444937 0 -8.67581 -0.000439461
0 -8.66264 -0.000434453 0 -8.64958 -0.000429659 0 -8.63664 -0.000425099 0
-8.62381 -0.00042044 0 -8.61109 -0.000415736 0 -8.59848 -0.000411504 0 -8.58597
-0.000407326 0 -8.57356 -0.000403109 0 -8.56125 -0.000398678 0 -8.54905 -0.000394142
0 -8.53695 -0.000390001 0 -8.52495 -0.000386047 0 -8.51304 -0.000382272 0
-8.50123 -0.000378383 0 -8.48951 -0.000374365 0 -8.47788 -0.000370543 0 -8.46634
-0.000366792 0 -8.4549 -0.000363165 0 -8.44353 -0.000359448 0 -8.43227 -0.000355673
0 -8.42108 -0.000352191 0 -8.40999 -0.000348866 0 -8.39896 -0.000345655 0
-8.38802 -0.000342299 0 -8.37716 -0.000338769 0 -8.36638 -0.000335423 0 -8.35569
-0.000332223 0 -8.34506 -0.000329118 0 -8.33452 -0.000326044 0 -8.32404 -0.000322906
0 -8.31365 -0.000319876 0 -8.30332 -0.000316986 0 -8.29306 -0.000314096 0
-8.28288 -0.000311229 0 -8.27276 -0.000308259 0 -8.26271 -0.000305315 0 -8.25274
-0.000302536 0 -8.24283 -0.000300014 0 -8.23299 -0.000296834 0 -8.22376 -0.000293674
0 -8.21507 -0.000291984 0 -8.20636 -0.000289174 0 -8.19764 -0.000286814 0
-8.18889 -0.000284627 0 -8.18011 -0.00028244 0 -8.17131 -0.00028016 0 -8.16249
-0.000277846 0 -8.15365 -0.000275689 0 -8.14478 -0.000273585 0 -8.13589 -0.000271457
0 -8.12698 -0.000269255 0 -8.11804 -0.000266985 0 -8.10908 -0.000264746 0
-8.10011 -0.0002626 0 -8.09111 -0.000260487 0 -8.08209 -0.000258408 0 -8.07304
-0.000256261 0 -8.06398 -0.00025406 0 -8.05489 -0.000251958 0 -8.04579 -0.000249874
0 -8.03666 -0.000247825 0 -8.02752 -0.00024567 0 -8.01835 -0.000243478 0
-8.00917 -0.000241444 0 -7.99997 -0.00023945 0 -7.99075 -0.000237461 0 -7.98151
-0.000235352 0 -7.97225 -0.000233224 0 -7.96298 -0.000231216 0 -7.95368 -0.000229223
0 -7.94437 -0.000227248 0 -7.93504 -0.000225219 0 -7.9257 -0.00022319 0
-7.91634 -0.000221234 0 -7.90696 -0.000219306 0 -7.89756 -0.000217342 0 -7.88815
-0.000215316 0 -7.87872 -0.00021337 0 -7.86928 -0.000211485 0 -7.85982 -0.000209637
0 -7.85035 -0.000207661 0 -7.84086 -0.000206002 0 -7.83134 -0.00020484 0
-7.82178 -0.000203465 0 -7.8122 -0.000201707 0 -7.8026 -0.000199784 0 -7.79299
-0.000197905 0 -7.78337 -0.000196082 0 -7.77373 -0.000194266 0 -7.76408 -0.000192395
0 -7.75443 -0.000190558 0 -7.74475 -0.000188802 0 -7.73507 -0.000187043 0
-7.72537 -0.000185224 0 -7.71566 -0.000183426 0 -7.70595 -0.000181698 0 -7.69622
-0.000179977 0 -7.68648 -0.000178221 0 -7.67673 -0.000176467 0 -7.66697 -0.000174781
0 -7.6572 -0.000173104 0 -7.64741 -0.000171377 0 -7.63763 -0.000169673 0
-7.62783 -0.000168049 0 -7.61802 -0.000166403 0 -7.6082 -0.000164723 0 -7.59838
-0.000163081 0 -7.58855 -0.000161491 0 -7.57871 -0.000159879 0 -7.56886 -0.000158248
0 -7.55901 -0.000156662 0 -7.54914 -0.000155124 0 -7.53927 -0.000153537 0
-7.5294 -0.00015195 0 -7.51952 -0.000150442 0 -7.50963 -0.000148915 0 -7.49974
-0.000147373 0 -7.48984 -0.000145853 0 -7.47993 -0.000144394 0 -7.47002 -0.000142898
0 -7.46011 -0.000141391 0 -7.45019 -0.000139951 0 -7.44026 -0.000138549 0
-7.43033 -0.00013727 0 -7.42038 -0.000136003 0 -7.41042 -0.000134644 0 -7.40046
-0.000133219 0 -7.3905 -0.000131792 0 -7.38053 -0.000130439 0 -7.37056 -0.000129058
0 -7.36059 -0.000127664 0 -7.35061 -0.000126324 0 -7.34064 -0.000124991 0
-7.33066 -0.00012364 0 -7.32068 -0.000122315 0 -7.3107 -0.000121024 0 -7.30071
-0.000119707 0 -7.29073 -0.000118408 0 -7.28075 -0.000117158 0 -7.27076 -0.000115874
0 -7.26078 -0.0001146 0 -7.25079 -0.000113384 0 -7.24081 -0.000112137 0
-7.23082 -0.000110892 0 -7.22084 -0.000109706 0 -7.21085 -0.000108496 0 -7.20087
-0.000107289 0 -7.19089 -0.000106128 0 -7.18091 -0.000104948 0 -7.17093 -0.000103774
0 -7.16096 -0.000102646 0 -7.15098 -0.000101499 0 -7.14101 -0.000100354 0
-7.13104 -9.92579e-05 0 -7.12107 -9.8141e-05 0 -7.11111 -9.70283e-05 0 -7.10115
-9.59609e-05 0 -7.09119 -9.48746e-05 0 -7.08123 -9.37977e-05 0 -7.07128 -9.27542e-05
0 -7.06133 -9.16948e-05 0 -7.05139 -9.06563e-05 0 -7.04145 -8.96386e-05 0
-7.03152 -8.86082e-05 0 -7.02158 -8.76023e-05 0 -7.01166 -8.66089e-05 0 -7.00174
-8.56091e-05 0 -6.99182 -8.4639e-05 0 -6.98191 -8.36665e-05 0 -6.972 -8.26962e-05
0 -6.9621 -8.17566e-05 0 -6.95221 -8.0807e-05 0 -6.94232 -7.98733e-05 0
-6.93244 -7.89571e-05 0 -6.92256 -7.80321e-05 0 -6.91269 -7.71331e-05 0 -6.90282
-7.62376e-05 0 -6.89297 -7.53423e-05 0 -6.88312 -7.44731e-05 0 -6.87327 -7.35984e-05
0 -6.86344 -7.27362e-05 0 -6.85361 -7.18889e-05 0 -6.84379 -7.1038e-05 0
-6.83397 -7.02121e-05 0 -6.82416 -6.93805e-05 0 -6.81437 -6.85589e-05 0 -6.80458
-6.77582e-05 0 -6.79479 -6.69498e-05 0 -6.78502 -6.61629e-05 0 -6.77525 -6.53762e-05
0 -6.7655 -6.45954e-05 0 -6.75575 -6.38327e-05 0 -6.74601 -6.30668e-05 0
-6.73628 -6.23202e-05 0 -6.72656 -6.15721e-05 0 -6.71685 -6.08347e-05 0 -6.70715
-6.0111e-05 0 -6.69745 -5.93837e-05 0 -6.68777 -5.86761e-05 0 -6.6781 -5.79678e-05
0 -6.66844 -5.72706e-05 0 -6.65878 -5.65805e-05 0 -6.64914 -5.58946e-05 0
-6.63951 -5.52226e-05 0 -6.62989 -5.45505e-05 0 -6.62028 -5.38927e-05 0 -6.61068
-5.32363e-05 0 -6.60109 -5.25885e-05 0 -6.59151 -5.19509e-05 0 -6.58194 -5.13147e-05
0 -6.57239 -5.06912e-05 0 -6.56284 -5.00704e-05 0 -6.55331 -4.94598e-05 0
-6.54379 -4.88534e-05 0 -6.53428 -4.82535e-05 0 -6.52478 -4.76621e-05 0 -6.5153
-4.70718e-05 0 -6.50582 -4.64944e-05 0 -6.49637 -4.58997e-05 0 -6.48691 -4.54095e-05
0 -6.47641 -4.47523e-05 0 -6.46498 -4.40518e-05 0 -6.45371 -4.34463e-05 0
-6.4426 -4.27963e-05 0 -6.43165 -4.21836e-05 0 -6.42085 -4.15765e-05 0 -6.4102
-4.09896e-05 0 -6.39969 -4.04138e-05 0 -6.38933 -3.98535e-05 0 -6.37911 -3.93065e-05
0 -6.36902 -3.87722e-05 0 -6.35906 -3.82511e-05 0 -6.34924 -3.77419e-05 0
-6.33954 -3.72462e-05 0 -6.32997 -3.67594e-05 0 -6.32051 -3.62846e-05 0 -6.31118
-3.58191e-05 0 -6.30195 -3.53669e-05 0 -6.29285 -3.49216e-05 0 -6.28384 -3.44893e-05
0 -6.27496 -3.40627e-05 0 -6.26617 -3.3649e-05 0 -6.25749 -3.32401e-05 0
-6.24891 -3.28436e-05 0 -6.24044 -3.24531e-05 0 -6.23205 -3.20722e-05 0 -6.22377
-3.16991e-05 0 -6.21557 -3.13343e-05 0 -6.20747 -3.09764e-05 0 -6.19945 -3.06262e-05
0 -6.19153 -3.02827e-05 0 -6.18369 -2.99464e-05 0 -6.17594 -2.96141e-05 0
-6.16826 -2.92922e-05 0 -6.16068 -2.89718e-05 0 -6.15316 -2.86634e-05 0 -6.14573
-2.83549e-05 0 -6.13837 -2.80572e-05 0 -6.13109 -2.77619e-05 0 -6.12388 -2.74739e-05
0 -6.11675 -2.71902e-05 0 -6.10968 -2.69136e-05 0 -6.10269 -2.66386e-05 0
-6.09576 -2.63736e-05 0 -6.08891 -2.61067e-05 0 -6.08211 -2.58524e-05 0 -6.07539
-2.55952e-05 0 -6.06872 -2.53485e-05 0 -6.06212 -2.5102e-05 0 -6.05557 -2.48624e-05
0 -6.0491 -2.46245e-05 0 -6.04268 -2.4395e-05 0 -6.03633 -2.41616e-05 0
-6.03001 -2.39424e-05 0 -6.02378 -2.37175e-05 0 -6.01758 -2.35028e-05 0 -6.01145
-2.32878e-05 0 -6.00536 -2.308e-05 0 -5.99934 -2.28705e-05 0 -5.99335 -2.26712e-05
0 -5.98744 -2.24675e-05 0 -5.98155 -2.22748e-05 0 -5.97574 -2.20789e-05 0
-5.96995 -2.189e-05 0 -5.96424 -2.17023e-05 0 -5.95854 -2.15194e-05 0 -5.95292
-2.13362e-05 0 -5.94732 -2.11602e-05 0 -5.94179 -2.0985e-05 0 -5.93627 -2.08099e-05
0 -5.93084 -2.06447e-05 0 -5.9254 -2.04739e-05 0 -5.92006 -2.03139e-05 0
-5.9147 -2.01478e-05 0 -5.90944 -1.99982e-05 0 -5.90416 -1.98307e-05 0 -5.89899
-1.96929e-05 0 -5.89377 -1.95267e-05 0 -5.88869 -1.94011e-05 0 -5.88354 -1.92314e-05
0 -5.87854 -1.91287e-05 0 -5.87345 -1.89421e-05 0 -5.86853 -1.8884e-05 0
-5.86349 -1.86453e-05 0 -5.85864 -1.87053e-05 0 -5.85369 -1.82913e-05 0 -5.84883
-1.87245e-05 0 -5.84406 -1.88079e-05 0 -5.83855 -2.12363e-05 0 -5.83414 -1.83442e-05
0 -5.82741 -2.3551e-05 0 -5.82535 -1.32383e-05 0 -5.81474 -3.3228e-05 0
-5.81884 1.09275e-05 0 -5.8037 -6.98815e-05 0 
U 3 449 float
0 0 0 0 0 0 0 0 0 0 0
0 0 0 0 0 0 0 0 0 0
0 0 0 0 0 0 0 0 0 0
0 0 0 0 0 0 0 0 0 0
0 0 0 0 0 0 0 0 0 0
0 0 0 0 0 0 0 0 0 0
0 0 0 0 0 0 0 0 0 0
0 0 0 0 0 0 0 0 0 0
0 0 0 0 0 0 0 0 0 0
0 0 0 0 0 0 0 0 0 0
0 0 0 0 0 0 0 0 0 0
0 0 0 0 0 0 0 0 0 0
0 0 0 0 0 0 0 0 0 0
0 0 0 0 0 0 0 0 0 0
0 0 0 0 0 0 0 0 0 0
0 0 0 0 0 0 0 0 0 0
0 0 0 0 0 0 0 0 0 0
0 0 0 0 0 0 0 0 0 0
0 0 0 0 0 0 0 0 0 0
0 0 0 0 0 0 0 0 0 0
0 0 0 0 0 0 0 0 0 0
0 0 0 0 0 0 0 0 0 0
0 0 0 0 0 0 0 0 0 0
0 0 0 0 0 0 0 0 0 0
0 0 0 0 0 0 0 0 0 0
0 0 0 0 0 0 0 0 0 0
0 0 0 0 0 0 0 0 0 0
0 0 0 0 0 0 0 0 0 0
0 0 0 0 0 0 0 0 0 0
0 0 0 0 0 0 0 0 0 0
0 0 0 0 0 0 0 0 0 0
0 0 0 0 0 0 0 0 0 0
0 0 0 0 0 0 0 0 0 0
0 0 0 0 0 0 0 0 0 0
0 0 0 0 0 0 0 0 0 0
0 0 0 0 0 0 0 0 0 0
0 0 0 0 0 0 0 0 0 0
0 0 0 0 0 0 0 0 0 0
0 0 0 0 0 0 0 0 0 0
0 0 0 0 0 0 0 0 0 0
0 0 0 0 0 0 0 0 0 0
0 0 0 0 0 0 0 0 0 0
0 0 0 0 0 0 0 0 0 0
0 0 0 0 0 0 0 0 0 0
0 0 0 0 0 0 0 0 0 0
0 0 0 0 0 0 0 0 0 0
0 0 0 0 0 0 0 0 0 0
0 0 0 0 0 0 0 0 0 0
0 0 0 0 0 0 0 0 0 0
0 0 0 0 0 0 0 0 0 0
0 0 0 0 0 0 0 0 0 0
0 0 0 0 0 0 0 0 0 0
0 0 0 0 0 0 0 0 0 0
0 0 0 0 0 0 0 0 0 0
0 0 0 0 0 0 0 0 0 0
0 0 0 0 0 0 0 0 0 0
0 0 0 0 0 0 0 0 0 0
0 0 0 0 0 0 0 0 0 0
0 0 0 0 0 0 0 0 0 0
0 0 0 0 0 0 0 0 0 0
0 0 0 0 0 0 0 0 0 0
0 0 0 0 0 0 0 0 0 0
0 0 0 0 0 0 0 0 0 0
0 0 0 0 0 0 0 0 0 0
0 0 0 0 0 0 0 0 0 0
0 0 0 0 0 0 0 0 0 0
0 0 0 0 0 0 0 0 0 0
0 0 0 0 0 0 0 0 0 0
0 0 0 0 0 0 0 0 0 0
0 0 0 0 0 0 0 0 0 0
0 0 0 0 0 0 0 0 0 0
0 0 0 0 0 0 0 0 0 0
0 0 0 0 0 0 0 0 0 0
0 0 0 0 0 0 0 0 0 0
0 0 0 0 0 0 0 0 0 0
0 0 0 0 0 0 0 0 0 0
0 0 0 0 0 0 0 0 0 0
0 0 0 0 0 0 0 0 0 0
0 0 0 0 0 0 0 0 0 0
0 0 0 0 0 0 0 0 0 0
0 0 0 0 0 0 0 0 0 0
0 0 0 0 0 0 0 0 0 0
0 0 0 0 0 0 0 0 0 0
0 0 0 0 0 0 0 0 0 0
0 0 0 0 0 0 0 0 0 0
0 0 0 0 0 0 0 0 0 0
0 0 0 0 0 0 0 0 0 0
0 0 0 0 0 0 0 0 0 0
0 0 0 0 0 0 0 0 0 0
0 0 0 0 0 0 0 0 0 0
0 0 0 0 0 0 0 0 0 0
0 0 0 0 0 0 0 0 0 0
0 0 0 0 0 0 0 0 0 0
0 0 0 0 0 0 0 0 0 0
0 0 0 0 0 0 0 0 0 0
0 0 0 0 0 0 0 0 0 0
0 0 0 0 0 0 0 0 0 0
0 0 0 0 0 0 0 0 0 0
0 0 0 0 0 0 0 0 0 0
0 0 0 0 0 0 0 0 0 0
0 0 0 0 0 0 0 0 0 0
0 0 0 0 0 0 0 0 0 0
0 0 0 0 0 0 0 0 0 0
0 0 0 0 0 0 0 0 0 0
0 0 0 0 0 0 0 0 0 0
0 0 0 0 0 0 0 0 0 0
0 0 0 0 0 0 0 0 0 0
0 0 0 0 0 0 0 0 0 0
0 0 0 0 0 0 0 0 0 0
0 0 0 0 0 0 0 0 0 0
0 0 0 0 0 0 0 0 0 0
0 0 0 0 0 0 0 0 0 0
0 0 0 0 0 0 0 0 0 0
0 0 0 0 0 0 0 0 0 0
0 0 0 0 0 0 0 0 0 0
0 0 0 0 0 0 0 0 0 0
0 0 0 0 0 0 0 0 0 0
0 0 0 0 0 0 0 0 0 0
0 0 0 0 0 0 0 0 0 0
0 0 0 0 0 0 0 0 0 0
0 0 0 0 0 0 0 0 0 0
0 0 0 0 0 0 0 0 0 0
0 0 0 0 0 0 0 0 0 0
0 0 0 0 0 0 0 0 0 0
0 0 0 0 0 0 0 0 0 0
0 0 0 0 0 0 0 0 0 0
0 0 0 0 0 0 0 0 0 0
0 0 0 0 0 0 0 0 0 0
0 0 0 0 0 0 0 0 0 0
0 0 0 0 0 0 0 0 0 0
0 0 0 0 0 0 0 0 0 0
0 0 0 0 0 0 0 0 0 0
0 0 0 0 0 0 0 0 0 0
0 0 0 0 0 0 0 0 0 0
0 0 0 0 0 0 
C 3 449 float
0.000485708 0 0.05 0.00145827 0 0.05 0.00243313 0 0.05 0.00341029 0
0.05 0.00438975 0 0.05 0.00537153 0 0.05 0.00635563 0 0.05
0.00734204 0 0.05 0.00833079 0 0.05 0.00932187 0 0.05 0.0103153
0 0.05 0.011311 0 0.05 0.0123092 0 0.05 0.0133096 0
0.05 0.0143125 0 0.05 0.0153177 0 0.05 0.0163252 0 0.05
0.0173352 0 0.05 0.0183475 0 0.05 0.0193622 0 0.05 0.0203793
0 0.05 0.0213988 0 0.05 0.0224208 0 0.05 0.0234451 0
0.05 0.0244718 0 0.05 0.025501 0 0.05 0.0265326 0 0.05
0.0275667 0 0.05 0.0286031 0 0.05 0.0296421 0 0.05 0.0306834
0 0.05 0.0317273 0 0.05 0.0327736 0 0.05 0.0338223 0
0.05 0.0348736 0 0.05 0.0359273 0 0.05 0.0369835 0 0.05
0.0380422 0 0.05 0.0391034 0 0.05 0.0401671 0 0.05 0.0412333
0 0.05 0.0423021 0 0.05 0.0433733 0 0.05 0.0444471 0
0.05 0.0455234 0 0.05 0.0466023 0 0.05 0.0476837 0 0.05
0.0487676 0 0.05 0.0498542 0 0.05 0.0509432 0 0.05 0.0520349
0 0.05 0.0531291 0 0.05 0.0542259 0 0.05 0.0553253 0
0.05 0.0564273 0 0.05 0.0575319 0 0.05 0.0586391 0 0.05
0.0597489 0 0.05 0.0608614 0 0.05 0.0619764 0 0.05 0.0630941
0 0.05 0.0642144 0 0.05 0.0653374 0 0.05 0.066463 0
0.05 0.0675913 0 0.05 0.0687222 0 0.05 0.0698559 0 0.05
0.0709921 0 0.05 0.0721311 0 0.05 0.0732728 0 0.05 0.0744171
0 0.05 0.0755642 0 0.05 0.0767139 0 0.05 0.0778664 0
0.05 0.0790216 0 0.05 0.0801795 0 0.05 0.0813402 0 0.05
0.0825035 0 0.05 0.0836697 0 0.05 0.0848386 0 0.05 0.0860102
0 0.05 0.0871846 0 0.05 0.0883618 0 0.05 0.0895418 0
0.05 0.0907245 0 0.05 0.0919101 0 0.05 0.0930984 0 0.05
0.0942895 0 0.05 0.0954835 0 0.05 0.0966803 0 0.05 0.0978799
0 0.05 0.0990823 0 0.05 0.100288 0 0.05 0.101496 0
0.05 0.102707 0 0.05 0.10392 0 0.05 0.105137 0 0.05
0.106357 0 0.05 0.107579 0 0.05 0.108804 0 0.05 0.110033
0 0.05 0.111264 0 0.05 0.112498 0 0.05 0.113735 0
0.05 0.114975 0 0.05 0.116217 0 0.05 0.117463 0 0.05
0.118712 0 0.05 0.119963 0 0.05 0.121218 0 0.05 0.122475
0 0.05 0.123736 0 0.05 0.124999 0 0.05 0.126266 0
0.05 0.127535 0 0.05 0.128808 0 0.05 0.130083 0 0.05
0.131361 0 0.05 0.132643 0 0.05 0.133927 0 0.05 0.135215
0 0.05 0.136505 0 0.05 0.137799 0 0.05 0.139096 0
0.05 0.140395 0 0.05 0.141698 0 0.05 0.143004 0 0.05
0.144313 0 0.05 0.145625 0 0.05 0.14694 0 0.05 0.148258
0 0.05 0.149579 0 0.05 0.150904 0 0.05 0.152231 0
0.05 0.153562 0 0.05 0.154896 0 0.05 0.156233 0 0.05
0.157573 0 0.05 0.158916 0 0.05 0.160263 0 0.05 0.161613
0 0.05 0.162965 0 0.05 0.164321 0 0.05 0.165681 0
0.05 0.167043 0 0.05 0.168409 0 0.05 0.169778 0 0.05
0.17115 0 0.05 0.172525 0 0.05 0.173904 0 0.05 0.175286
0 0.05 0.176671 0 0.05 0.178059 0 0.05 0.179451 0
0.05 0.180846 0 0.05 0.182244 0 0.05 0.183646 0 0.05
0.18505 0 0.05 0.186459 0 0.05 0.18787 0 0.05 0.189285
0 0.05 0.190703 0 0.05 0.192124 0 0.05 0.193549 0
0.05 0.194978 0 0.05 0.196409 0 0.05 0.197844 0 0.05
0.199282 0 0.05 0.200724 0 0.05 0.202169 0 0.05 0.203618
0 0.05 0.20507 0 0.05 0.206525 0 0.05 0.207903 0
0.05 0.209207 0 0.05 0.210526 0 0.05 0.211859 0 0.05
0.213207 0 0.05 0.214569 0 0.05 0.215947 0 0.05 0.217339
0 0.05 0.218746 0 0.05 0.220168 0 0.05 0.221606 0
0.05 0.22306 0 0.05 0.224529 0 0.05 0.226015 0 0.05
0.227516 0 0.05 0.229034 0 0.05 0.230569 0 0.05 0.23212
0 0.05 0.233687 0 0.05 0.235272 0 0.05 0.236875 0
0.05 0.238494 0 0.05 0.240131 0 0.05 0.241786 0 0.05
0.243459 0 0.05 0.24515 0 0.05 0.24686 0 0.05 0.248588
0 0.05 0.250335 0 0.05 0.252101 0 0.05 0.253886 0
0.05 0.25569 0 0.05 0.257514 0 0.05 0.259358 0 0.05
0.261222 0 0.05 0.263106 0 0.05 0.265011 0 0.05 0.266937
0 0.05 0.268883 0 0.05 0.27085 0 0.05 0.272839 0
0.05 0.27485 0 0.05 0.276882 0 0.05 0.278936 0 0.05
0.281013 0 0.05 0.283113 0 0.05 0.285235 0 0.05 0.28738
0 0.05 0.289548 0 0.05 0.291741 0 0.05 0.293956 0
0.05 0.296196 0 0.05 0.298461 0 0.05 0.30075 0 0.05
0.303064 0 0.05 0.305403 0 0.05 0.307767 0 0.05 0.310157
0 0.05 0.312573 0 0.05 0.315016 0 0.05 0.317485 0
0.05 0.31998 0 0.05 0.322503 0 0.05 0.325053 0 0.05
0.327632 0 0.05 0.330238 0 0.05 0.332872 0 0.05 0.335535
0 0.05 0.338227 0 0.05 0.340948 0 0.05 0.343699 0
0.05 0.346479 0 0.05 0.34929 0 0.05 0.352132 0 0.05
0.355004 0 0.05 0.357908 0 0.05 0.360843 0 0.05 0.36381
0 0.05 0.366809 0 0.05 0.369841 0 0.05 0.372906 0
0.05 0.376004 0 0.05 0.379136 0 0.05 0.382302 0 0.05
0.385502 0 0.05 0.388737 0 0.05 0.392007 0 0.05 0.395313
0 0.05 0.398654 0 0.05 0.402032 0 0.05 0.405447 0
0.05 0.408899 0 0.05 0.412388 0 0.05 0.415916 0 0.05
0.419481 0 0.05 0.423086 0 0.05 0.426729 0 0.05 0.430412
0 0.05 0.434136 0 0.05 0.437899 0 0.05 0.441704 0
0.05 0.44555 0 0.05 0.449437 0 0.05 0.453367 0 0.05
0.45734 0 0.05 0.461356 0 0.05 0.465415 0 0.05 0.469519
0 0.05 0.473667 0 0.05 0.477861 0 0.05 0.4821 0
0.05 0.486385 0 0.05 0.490716 0 0.05 0.495095 0 0.05
0.499521 0 0.05 0.503995 0 0.05 0.508518 0 0.05 0.51309
0 0.05 0.517712 0 0.05 0.522384 0 0.05 0.527107 0
0.05 0.531881 0 0.05 0.536707 0 0.05 0.541586 0 0.05
0.546518 0 0.05 0.551503 0 0.05 0.556542 0 0.05 0.561636
0 0.05 0.566786 0 0.05 0.571991 0 0.05 0.577253 0
0.05 0.582572 0 0.05 0.587949 0 0.05 0.593385 0 0.05
0.59888 0 0.05 0.604434 0 0.05 0.610048 0 0.05 0.615724
0 0.05 0.621462 0 0.05 0.627261 0 0.05 0.633124 0
0.05 0.639051 0 0.05 0.645042 0 0.05 0.651098 0 0.05
0.657219 0 0.05 0.663408 0 0.05 0.669664 0 0.05 0.675987
0 0.05 0.68238 0 0.05 0.688842 0 0.05 0.695374 0
0.05 0.701977 0 0.05 0.708652 0 0.05 0.715399 0 0.05
0.72222 0 0.05 0.729115 0 0.05 0.736085 0 0.05 0.74313
0 0.05 0.750252 0 0.05 0.757452 0 0.05 0.76473 0
0.05 0.772087 0 0.05 0.779524 0 0.05 0.787042 0 0.05
0.794641 0 0.05 0.802323 0 0.05 0.810089 0 0.05 0.817939
0 0.05 0.825874 0 0.05 0.833896 0 0.05 0.842004 0
0.05 0.850201 0 0.05 0.858487 0 0.05 0.866863 0 0.05
0.87533 0 0.05 0.883889 0 0.05 0.892542 0 0.05 0.901288
0 0.05 0.910129 0 0.05 0.919066 0 0.05 0.928101 0
0.05 0.93826 0 0.05 0.949495 0 0.05 0.960731 0 0.05
0.971966 0 0.05 0.983202 0 0.05 0.994437 0 0.05 1.00567
0 0.05 1.01691 0 0.05 1.02814 0 0.05 1.03938 0
0.05 1.05061 0 0.05 1.06185 0 0.05 1.07308 0 0.05
1.08432 0 0.05 1.09555 0 0.05 1.10679 0 0.05 1.11803
0 0.05 1.12926 0 0.05 1.1405 0 0.05 1.15173 0
0.05 1.16297 0 0.05 1.1742 0 0.05 1.18544 0 0.05
1.19667 0 0.05 1.20791 0 0.05 1.21914 0 0.05 1.23038
0 0.05 1.24161 0 0.05 1.25285 0 0.05 1.26409 0
0.05 1.27532 0 0.05 1.28656 0 0.05 1.29779 0 0.05
1.30903 0 0.05 1.32026 0 0.05 1.3315 0 0.05 1.34273
0 0.05 1.35397 0 0.05 1.3652 0 0.05 1.37644 0
0.05 1.38767 0 0.05 1.39891 0 0.05 1.41014 0 0.05
1.42138 0 0.05 1.43262 0 0.05 1.44385 0 0.05 1.45509
0 0.05 1.46632 0 0.05 1.47756 0 0.05 1.48879 0
0.05 1.50003 0 0.05 1.51126 0 0.05 1.5225 0 0.05
1.53373 0 0.05 1.54497 0 0.05 1.5562 0 0.05 1.56744
0 0.05 1.57867 0 0.05 1.58991 0 0.05 1.60115 0
0.05 1.61238 0 0.05 1.62362 0 0.05 1.63485 0 0.05
1.64609 0 0.05 1.65732 0 0.05 1.66856 0 0.05 1.67979
0 0.05 1.69103 0 0.05 1.70226 0 0.05 1.7135 0
0.05 1.72473 0 0.05 1.73597 0 0.05 1.7472 0 0.05
1.75844 0 0.05 1.76968 0 0.05 1.78091 0 0.05 1.79215
0 0.05 1.80338 0 0.05 1.81462 0 0.05 1.82585 0
0.05 1.83709 0 0.05 1.84832 0 0.05 1.85956 0 0.05
1.87079 0 0.05 1.88203 0 0.05 1.89326 0 0.05 1.9045
0 0.05 1.91573 0 0.05 1.92697 0 0.05 1.93821 0
0.05 1.94944 0 0.05 1.96068 0 0.05 1.97191 0 0.05
1.98315 0 0.05 1.99438 0 0.05 
POINT_DATA  900
FIELD attributes 11
Cy 1 900 float
0 0 0 0 0 0 0 0 0 0 0
0 0 0 0 0 0 0 0 0 0
0 0 0 0 0 0 0 0 0 0
0 0 0 0 0 0 0 0 0 0
0 0 0 0 0 0 0 0 0 0
0 0 0 0 0 0 0 0 0 0
0 0 0 0 0 0 0 0 0 0
0 0 0 0 0 0 0 0 0 0
0 0 0 0 0 0 0 0 0 0
0 0 0 0 0 0 0 0 0 0
0 0 0 0 0 0 0 0 0 0
0 0 0 0 0 0 0 0 0 0
0 0 0 0 0 0 0 0 0 0
0 0 0 0 0 0 0 0 0 0
0 0 0 0 0 0 0 0 0 0
0 0 0 0 0 0 0 0 0 0
0 0 0 0 0 0 0 0 0 0
0 0 0 0 0 0 0 0 0 0
0 0 0 0 0 0 0 0 0 0
0 0 0 0 0 0 0 0 0 0
0 0 0 0 0 0 0 0 0 0
0 0 0 0 0 0 0 0 0 0
0 0 0 0 0 0 0 0 0 0
0 0 0 0 0 0 0 0 0 0
0 0 0 0 0 0 0 0 0 0
0 0 0 0 0 0 0 0 0 0
0 0 0 0 0 0 0 0 0 0
0 0 0 0 0 0 0 0 0 0
0 0 0 0 0 0 0 0 0 0
0 0 0 0 0 0 0 0 0 0
0 0 0 0 0 0 0 0 0 0
0 0 0 0 0 0 0 0 0 0
0 0 0 0 0 0 0 0 0 0
0 0 0 0 0 0 0 0 0 0
0 0 0 0 0 0 0 0 0 0
0 0 0 0 0 0 0 0 0 0
0 0 0 0 0 0 0 0 0 0
0 0 0 0 0 0 0 0 0 0
0 0 0 0 0 0 0 0 0 0
0 0 0 0 0 0 0 0 0 0
0 0 0 0 0 0 0 0 0 0
0 0 0 0 0 0 0 0 0 0
0 0 0 0 0 0 0 0 0 0
0 0 0 0 0 0 0 0 0 0
0 0 0 0 0 0 0 0 0 0
0 0 0 0 0 0 0 0 0 0
0 0 0 0 0 0 0 0 0 0
0 0 0 0 0 0 0 0 0 0
0 0 0 0 0 0 0 0 0 0
0 0 0 0 0 0 0 0 0 0
0 0 0 0 0 0 0 0 0 0
0 0 0 0 0 0 0 0 0 0
0 0 0 0 0 0 0 0 0 0
0 0 0 0 0 0 0 0 0 0
0 0 0 0 0 0 0 0 0 0
0 0 0 0 0 0 0 0 0 0
0 0 0 0 0 0 0 0 0 0
0 0 0 0 0 0 0 0 0 0
0 0 0 0 0 0 0 0 0 0
0 0 0 0 0 0 0 0 0 0
0 0 0 0 0 0 0 0 0 0
0 0 0 0 0 0 0 0 0 0
0 0 0 0 0 0 0 0 0 0
0 0 0 0 0 0 0 0 0 0
0 0 0 0 0 0 0 0 0 0
0 0 0 0 0 0 0 0 0 0
0 0 0 0 0 0 0 0 0 0
0 0 0 0 0 0 0 0 0 0
0 0 0 0 0 0 0 0 0 0
0 0 0 0 0 0 0 0 0 0
0 0 0 0 0 0 0 0 0 0
0 0 0 0 0 0 0 0 0 0
0 0 0 0 0 0 0 0 0 0
0 0 0 0 0 0 0 0 0 0
0 0 0 0 0 0 0 0 0 0
0 0 0 0 0 0 0 0 0 0
0 0 0 0 0 0 0 0 0 0
0 0 0 0 0 0 0 0 0 0
0 0 0 0 0 0 0 0 0 0
0 0 0 0 0 0 0 0 0 0
0 0 0 0 0 0 0 0 0 0
0 0 0 0 0 0 0 0 0 0
0 0 0 0 0 0 0 0 0 0
0 0 0 0 0 0 0 0 0 0
0 0 0 0 0 0 0 0 0 0
0 0 0 0 0 0 0 0 0 0
0 0 0 0 0 0 0 0 0 0
0 0 0 0 0 0 0 0 0 0
0 0 0 0 0 0 0 0 0 0
0 0 0 0 0 0 0 0 0 
nut 1 900 float
3.12906e-06 2.43142e-06 2.43142e-06 3.12906e-06 1.29299e-06 1.29299e-06 6.6817e-07 6.6817e-07 4.28095e-07 4.28095e-07 3.56891e-07
3.56891e-07 3.35225e-07 3.35225e-07 3.23934e-07 3.23934e-07 3.19489e-07 3.19489e-07 3.34681e-07 3.34681e-07 3.91377e-07
3.91377e-07 4.73691e-07 4.73691e-07 5.48633e-07 5.48633e-07 6.09441e-07 6.09441e-07 6.54027e-07 6.54027e-07 6.8381e-07
6.8381e-07 7.00891e-07 7.00891e-07 7.07941e-07 7.07941e-07 7.07982e-07 7.07982e-07 7.02934e-07 7.02934e-07 6.94799e-07
6.94799e-07 6.85385e-07 6.85385e-07 6.75591e-07 6.75591e-07 6.65787e-07 6.65787e-07 6.56149e-07 6.56149e-07 6.46765e-07
6.46765e-07 6.37688e-07 6.37688e-07 6.28964e-07 6.28964e-07 6.20594e-07 6.20594e-07 6.12576e-07 6.12576e-07 6.04921e-07
6.04921e-07 5.97589e-07 5.97589e-07 5.90508e-07 5.90508e-07 5.83646e-07 5.83646e-07 5.77023e-07 5.77023e-07 5.70672e-07
5.70672e-07 5.64601e-07 5.64601e-07 5.58807e-07 5.58807e-07 5.53272e-07 5.53272e-07 5.47978e-07 5.47978e-07 5.42898e-07
5.42898e-07 5.38006e-07 5.38006e-07 5.3328e-07 5.3328e-07 5.28707e-07 5.28707e-07 5.24288e-07 5.24288e-07 5.20024e-07
5.20024e-07 5.15908e-07 5.15908e-07 5.11932e-07 5.11932e-07 5.08094e-07 5.08094e-07 5.04386e-07 5.04386e-07 5.00793e-07
5.00793e-07 4.97298e-07 4.97298e-07 4.93896e-07 4.93896e-07 4.90586e-07 4.90586e-07 4.87366e-07 4.87366e-07 4.84234e-07
4.84234e-07 4.8119e-07 4.8119e-07 4.78233e-07 4.78233e-07 4.75351e-07 4.75351e-07 4.7253e-07 4.7253e-07 4.6977e-07
4.6977e-07 4.67071e-07 4.67071e-07 4.64433e-07 4.64433e-07 4.61856e-07 4.61856e-07 4.59341e-07 4.59341e-07 4.56888e-07
4.56888e-07 4.54494e-07 4.54494e-07 4.52155e-07 4.52155e-07 4.49865e-07 4.49865e-07 4.47622e-07 4.47622e-07 4.45422e-07
4.45422e-07 4.43265e-07 4.43265e-07 4.4115e-07 4.4115e-07 4.3908e-07 4.3908e-07 4.37052e-07 4.37052e-07 4.35066e-07
4.35066e-07 4.33118e-07 4.33118e-07 4.31206e-07 4.31206e-07 4.29328e-07 4.29328e-07 4.27482e-07 4.27482e-07 4.25666e-07
4.25666e-07 4.23883e-07 4.23883e-07 4.22132e-07 4.22132e-07 4.20413e-07 4.20413e-07 4.18724e-07 4.18724e-07 4.17063e-07
4.17063e-07 4.15429e-07 4.15429e-07 4.13821e-07 4.13821e-07 4.12236e-07 4.12236e-07 4.10676e-07 4.10676e-07 4.0914e-07
4.0914e-07 4.07629e-07 4.07629e-07 4.06142e-07 4.06142e-07 4.04679e-07 4.04679e-07 4.03236e-07 4.03236e-07 4.01814e-07
4.01814e-07 4.00412e-07 4.00412e-07 3.99029e-07 3.99029e-07 3.97664e-07 3.97664e-07 3.96319e-07 3.96319e-07 3.94994e-07
3.94994e-07 3.93688e-07 3.93688e-07 3.924e-07 3.924e-07 3.91128e-07 3.91128e-07 3.89872e-07 3.89872e-07 3.88633e-07
3.88633e-07 3.87409e-07 3.87409e-07 3.862e-07 3.862e-07 3.85007e-07 3.85007e-07 3.83829e-07 3.83829e-07 3.82667e-07
3.82667e-07 3.81519e-07 3.81519e-07 3.80384e-07 3.80384e-07 3.79262e-07 3.79262e-07 3.78153e-07 3.78153e-07 3.77058e-07
3.77058e-07 3.75975e-07 3.75975e-07 3.74904e-07 3.74904e-07 3.73846e-07 3.73846e-07 3.72801e-07 3.72801e-07 3.71767e-07
3.71767e-07 3.70745e-07 3.70745e-07 3.69732e-07 3.69732e-07 3.68731e-07 3.68731e-07 3.67741e-07 3.67741e-07 3.66761e-07
3.66761e-07 3.65792e-07 3.65792e-07 3.64833e-07 3.64833e-07 3.63884e-07 3.63884e-07 3.62945e-07 3.62945e-07 3.62016e-07
3.62016e-07 3.61095e-07 3.61095e-07 3.60183e-07 3.60183e-07 3.5928e-07 3.5928e-07 3.58387e-07 3.58387e-07 3.57503e-07
3.57503e-07 3.56627e-07 3.56627e-07 3.5576e-07 3.5576e-07 3.549e-07 3.549e-07 3.54049e-07 3.54049e-07 3.53205e-07
3.53205e-07 3.52369e-07 3.52369e-07 3.51541e-07 3.51541e-07 3.5072e-07 3.5072e-07 3.49907e-07 3.49907e-07 3.49101e-07
3.49101e-07 3.48303e-07 3.48303e-07 3.47511e-07 3.47511e-07 3.46726e-07 3.46726e-07 3.45948e-07 3.45948e-07 3.45176e-07
3.45176e-07 3.44412e-07 3.44412e-07 3.43654e-07 3.43654e-07 3.42902e-07 3.42902e-07 3.42157e-07 3.42157e-07 3.41418e-07
3.41418e-07 3.40685e-07 3.40685e-07 3.39958e-07 3.39958e-07 3.39236e-07 3.39236e-07 3.38521e-07 3.38521e-07 3.37811e-07
3.37811e-07 3.37108e-07 3.37108e-07 3.36409e-07 3.36409e-07 3.35716e-07 3.35716e-07 3.35029e-07 3.35029e-07 3.34347e-07
3.34347e-07 3.3367e-07 3.3367e-07 3.32998e-07 3.32998e-07 3.32331e-07 3.32331e-07 3.3167e-07 3.3167e-07 3.31013e-07
3.31013e-07 3.30362e-07 3.30362e-07 3.29715e-07 3.29715e-07 3.29091e-07 3.29091e-07 3.28505e-07 3.28505e-07 3.27937e-07
3.27937e-07 3.27367e-07 3.27367e-07 3.26797e-07 3.26797e-07 3.26225e-07 3.26225e-07 3.25652e-07 3.25652e-07 3.25079e-07
3.25079e-07 3.24504e-07 3.24504e-07 3.23928e-07 3.23928e-07 3.2335e-07 3.2335e-07 3.22772e-07 3.22772e-07 3.22192e-07
3.22192e-07 3.21611e-07 3.21611e-07 3.2103e-07 3.2103e-07 3.20447e-07 3.20447e-07 3.19864e-07 3.19864e-07 3.19279e-07
3.19279e-07 3.18694e-07 3.18694e-07 3.18107e-07 3.18107e-07 3.1752e-07 3.1752e-07 3.16932e-07 3.16932e-07 3.16342e-07
3.16342e-07 3.15752e-07 3.15752e-07 3.15162e-07 3.15162e-07 3.1457e-07 3.1457e-07 3.13977e-07 3.13977e-07 3.13384e-07
3.13384e-07 3.1279e-07 3.1279e-07 3.12195e-07 3.12195e-07 3.116e-07 3.116e-07 3.11003e-07 3.11003e-07 3.10406e-07
3.10406e-07 3.09809e-07 3.09809e-07 3.0921e-07 3.0921e-07 3.08612e-07 3.08612e-07 3.08012e-07 3.08012e-07 3.07412e-07
3.07412e-07 3.06811e-07 3.06811e-07 3.0621e-07 3.0621e-07 3.05608e-07 3.05608e-07 3.05006e-07 3.05006e-07 3.04403e-07
3.04403e-07 3.03799e-07 3.03799e-07 3.03193e-07 3.03193e-07 3.02586e-07 3.02586e-07 3.01978e-07 3.01978e-07 3.01369e-07
3.01369e-07 3.00761e-07 3.00761e-07 3.00151e-07 3.00151e-07 2.99542e-07 2.99542e-07 2.98932e-07 2.98932e-07 2.98322e-07
2.98322e-07 2.97712e-07 2.97712e-07 2.97101e-07 2.97101e-07 2.9649e-07 2.9649e-07 2.95879e-07 2.95879e-07 2.95268e-07
2.95268e-07 2.94656e-07 2.94656e-07 2.94044e-07 2.94044e-07 2.93432e-07 2.93432e-07 2.9282e-07 2.9282e-07 2.92208e-07
2.92208e-07 2.91595e-07 2.91595e-07 2.90983e-07 2.90983e-07 2.90371e-07 2.90371e-07 2.89758e-07 2.89758e-07 2.89145e-07
2.89145e-07 2.88533e-07 2.88533e-07 2.8792e-07 2.8792e-07 2.87307e-07 2.87307e-07 2.86695e-07 2.86695e-07 2.86082e-07
2.86082e-07 2.8547e-07 2.8547e-07 2.84857e-07 2.84857e-07 2.84245e-07 2.84245e-07 2.83633e-07 2.83633e-07 2.8302e-07
2.8302e-07 2.82408e-07 2.82408e-07 2.81797e-07 2.81797e-07 2.81185e-07 2.81185e-07 2.80573e-07 2.80573e-07 2.79962e-07
2.79962e-07 2.79351e-07 2.79351e-07 2.7874e-07 2.7874e-07 2.78129e-07 2.78129e-07 2.77517e-07 2.77517e-07 2.76906e-07
2.76906e-07 2.76295e-07 2.76295e-07 2.75684e-07 2.75684e-07 2.75074e-07 2.75074e-07 2.74464e-07 2.74464e-07 2.73854e-07
2.73854e-07 2.73245e-07 2.73245e-07 2.72636e-07 2.72636e-07 2.72028e-07 2.72028e-07 2.7142e-07 2.7142e-07 2.70812e-07
2.70812e-07 2.70205e-07 2.70205e-07 2.69598e-07 2.69598e-07 2.68992e-07 2.68992e-07 2.68386e-07 2.68386e-07 2.67781e-07
2.67781e-07 2.67176e-07 2.67176e-07 2.66572e-07 2.66572e-07 2.65969e-07 2.65969e-07 2.65366e-07 2.65366e-07 2.64763e-07
2.64763e-07 2.64161e-07 2.64161e-07 2.6356e-07 2.6356e-07 2.62959e-07 2.62959e-07 2.62359e-07 2.62359e-07 2.6176e-07
2.6176e-07 2.61161e-07 2.61161e-07 2.60563e-07 2.60563e-07 2.59965e-07 2.59965e-07 2.59369e-07 2.59369e-07 2.58772e-07
2.58772e-07 2.58177e-07 2.58177e-07 2.57582e-07 2.57582e-07 2.56988e-07 2.56988e-07 2.56395e-07 2.56395e-07 2.55803e-07
2.55803e-07 2.55211e-07 2.55211e-07 2.5462e-07 2.5462e-07 2.5403e-07 2.5403e-07 2.53441e-07 2.53441e-07 2.52852e-07
2.52852e-07 2.52264e-07 2.52264e-07 2.51677e-07 2.51677e-07 2.51091e-07 2.51091e-07 2.50506e-07 2.50506e-07 2.49922e-07
2.49922e-07 2.49338e-07 2.49338e-07 2.48756e-07 2.48756e-07 2.48174e-07 2.48174e-07 2.47593e-07 2.47593e-07 2.47013e-07
2.47013e-07 2.46434e-07 2.46434e-07 2.45856e-07 2.45856e-07 2.45278e-07 2.45278e-07 2.44702e-07 2.44702e-07 2.44127e-07
2.44127e-07 2.43552e-07 2.43552e-07 2.42979e-07 2.42979e-07 2.42406e-07 2.42406e-07 2.41835e-07 2.41835e-07 2.41264e-07
2.41264e-07 2.40695e-07 2.40695e-07 2.40126e-07 2.40126e-07 2.39559e-07 2.39559e-07 2.38992e-07 2.38992e-07 2.38427e-07
2.38427e-07 2.37862e-07 2.37862e-07 2.37299e-07 2.37299e-07 2.36736e-07 2.36736e-07 2.36175e-07 2.36175e-07 2.35615e-07
2.35615e-07 2.35055e-07 2.35055e-07 2.34497e-07 2.34497e-07 2.3394e-07 2.3394e-07 2.33384e-07 2.33384e-07 2.32829e-07
2.32829e-07 2.32275e-07 2.32275e-07 2.31722e-07 2.31722e-07 2.31171e-07 2.31171e-07 2.3062e-07 2.3062e-07 2.30071e-07
2.30071e-07 2.29523e-07 2.29523e-07 2.28975e-07 2.28975e-07 2.28429e-07 2.28429e-07 2.27885e-07 2.27885e-07 2.27341e-07
2.27341e-07 2.26798e-07 2.26798e-07 2.26257e-07 2.26257e-07 2.25717e-07 2.25717e-07 2.25177e-07 2.25177e-07 2.24639e-07
2.24639e-07 2.24103e-07 2.24103e-07 2.23567e-07 2.23567e-07 2.23033e-07 2.23033e-07 2.2247e-07 2.2247e-07 2.21851e-07
2.21851e-07 2.21212e-07 2.21212e-07 2.20582e-07 2.20582e-07 2.19962e-07 2.19962e-07 2.19351e-07 2.19351e-07 2.18749e-07
2.18749e-07 2.18157e-07 2.18157e-07 2.17573e-07 2.17573e-07 2.16997e-07 2.16997e-07 2.1643e-07 2.1643e-07 2.1587e-07
2.1587e-07 2.15319e-07 2.15319e-07 2.14775e-07 2.14775e-07 2.14239e-07 2.14239e-07 2.1371e-07 2.1371e-07 2.13188e-07
2.13188e-07 2.12673e-07 2.12673e-07 2.12165e-07 2.12165e-07 2.11664e-07 2.11664e-07 2.11169e-07 2.11169e-07 2.10681e-07
2.10681e-07 2.10198e-07 2.10198e-07 2.09722e-07 2.09722e-07 2.09252e-07 2.09252e-07 2.08788e-07 2.08788e-07 2.08329e-07
2.08329e-07 2.07876e-07 2.07876e-07 2.07428e-07 2.07428e-07 2.06986e-07 2.06986e-07 2.06549e-07 2.06549e-07 2.06117e-07
2.06117e-07 2.0569e-07 2.0569e-07 2.05267e-07 2.05267e-07 2.0485e-07 2.0485e-07 2.04438e-07 2.04438e-07 2.0403e-07
2.0403e-07 2.03626e-07 2.03626e-07 2.03227e-07 2.03227e-07 2.02833e-07 2.02833e-07 2.02443e-07 2.02443e-07 2.02056e-07
2.02056e-07 2.01674e-07 2.01674e-07 2.01297e-07 2.01297e-07 2.00923e-07 2.00923e-07 2.00552e-07 2.00552e-07 2.00186e-07
2.00186e-07 1.99824e-07 1.99824e-07 1.99465e-07 1.99465e-07 1.9911e-07 1.9911e-07 1.98758e-07 1.98758e-07 1.9841e-07
1.9841e-07 1.98065e-07 1.98065e-07 1.97724e-07 1.97724e-07 1.97385e-07 1.97385e-07 1.97051e-07 1.97051e-07 1.96719e-07
1.96719e-07 1.9639e-07 1.9639e-07 1.96065e-07 1.96065e-07 1.95743e-07 1.95743e-07 1.95423e-07 1.95423e-07 1.95107e-07
1.95107e-07 1.94793e-07 1.94793e-07 1.94482e-07 1.94482e-07 1.94174e-07 1.94174e-07 1.93869e-07 1.93869e-07 1.93567e-07
1.93567e-07 1.93267e-07 1.93267e-07 1.92969e-07 1.92969e-07 1.92675e-07 1.92675e-07 1.92383e-07 1.92383e-07 1.92093e-07
1.92093e-07 1.91806e-07 1.91806e-07 1.91521e-07 1.91521e-07 1.91238e-07 1.91238e-07 1.90958e-07 1.90958e-07 1.9068e-07
1.9068e-07 1.90404e-07 1.90404e-07 1.90131e-07 1.90131e-07 1.89859e-07 1.89859e-07 1.8959e-07 1.8959e-07 1.89323e-07
1.89323e-07 1.89057e-07 1.89057e-07 1.88794e-07 1.88794e-07 1.88532e-07 1.88532e-07 1.88273e-07 1.88273e-07 1.88014e-07
1.88014e-07 1.87759e-07 1.87759e-07 1.87488e-07 1.87488e-07 1.87226e-07 1.87226e-07 1.86932e-07 1.86932e-07 1.867e-07
1.867e-07 1.86367e-07 1.86367e-07 1.86195e-07 1.86195e-07 1.85905e-07 1.85905e-07 1.85507e-07 1.85507e-07 
Cz 1 900 float
0.05 0.05 0.05 0.05 0.05 0.05 0.05 0.05 0.05 0.05 0.05
0.05 0.05 0.05 0.05 0.05 0.05 0.05 0.05 0.05 0.05
0.05 0.05 0.05 0.05 0.05 0.05 0.05 0.05 0.05 0.05
0.05 0.05 0.05 0.05 0.05 0.05 0.05 0.05 0.05 0.05
0.05 0.05 0.05 0.05 0.05 0.05 0.05 0.05 0.05 0.05
0.05 0.05 0.05 0.05 0.05 0.05 0.05 0.05 0.05 0.05
0.05 0.05 0.05 0.05 0.05 0.05 0.05 0.05 0.05 0.05
0.05 0.05 0.05 0.05 0.05 0.05 0.05 0.05 0.05 0.05
0.05 0.05 0.05 0.05 0.05 0.05 0.05 0.05 0.05 0.05
0.05 0.05 0.05 0.05 0.05 0.05 0.05 0.05 0.05 0.05
0.05 0.05 0.05 0.05 0.05 0.05 0.05 0.05 0.05 0.05
0.05 0.05 0.05 0.05 0.05 0.05 0.05 0.05 0.05 0.05
0.05 0.05 0.05 0.05 0.05 0.05 0.05 0.05 0.05 0.05
0.05 0.05 0.05 0.05 0.05 0.05 0.05 0.05 0.05 0.05
0.05 0.05 0.05 0.05 0.05 0.05 0.05 0.05 0.05 0.05
0.05 0.05 0.05 0.05 0.05 0.05 0.05 0.05 0.05 0.05
0.05 0.05 0.05 0.05 0.05 0.05 0.05 0.05 0.05 0.05
0.05 0.05 0.05 0.05 0.05 0.05 0.05 0.05 0.05 0.05
0.05 0.05 0.05 0.05 0.05 0.05 0.05 0.05 0.05 0.05
0.05 0.05 0.05 0.05 0.05 0.05 0.05 0.05 0.05 0.05
0.05 0.05 0.05 0.05 0.05 0.05 0.05 0.05 0.05 0.05
0.05 0.05 0.05 0.05 0.05 0.05 0.05 0.05 0.05 0.05
0.05 0.05 0.05 0.05 0.05 0.05 0.05 0.05 0.05 0.05
0.05 0.05 0.05 0.05 0.05 0.05 0.05 0.05 0.05 0.05
0.05 0.05 0.05 0.05 0.05 0.05 0.05 0.05 0.05 0.05
0.05 0.05 0.05 0.05 0.05 0.05 0.05 0.05 0.05 0.05
0.05 0.05 0.05 0.05 0.05 0.05 0.05 0.05 0.05 0.05
0.05 0.05 0.05 0.05 0.05 0.05 0.05 0.05 0.05 0.05
0.05 0.05 0.05 0.05 0.05 0.05 0.05 0.05 0.05 0.05
0.05 0.05 0.05 0.05 0.05 0.05 0.05 0.05 0.05 0.05
0.05 0.05 0.05 0.05 0.05 0.05 0.05 0.05 0.05 0.05
0.05 0.05 0.05 0.05 0.05 0.05 0.05 0.05 0.05 0.05
0.05 0.05 0.05 0.05 0.05 0.05 0.05 0.05 0.05 0.05
0.05 0.05 0.05 0.05 0.05 0.05 0.05 0.05 0.05 0.05
0.05 0.05 0.05 0.05 0.05 0.05 0.05 0.05 0.05 0.05
0.05 0.05 0.05 0.05 0.05 0.05 0.05 0.05 0.05 0.05
0.05 0.05 0.05 0.05 0.05 0.05 0.05 0.05 0.05 0.05
0.05 0.05 0.05 0.05 0.05 0.05 0.05 0.05 0.05 0.05
0.05 0.05 0.05 0.05 0.05 0.05 0.05 0.05 0.05 0.05
0.05 0.05 0.05 0.05 0.05 0.05 0.05 0.05 0.05 0.05
0.05 0.05 0.05 0.05 0.05 0.05 0.05 0.05 0.05 0.05
0.05 0.05 0.05 0.05 0.05 0.05 0.05 0.05 0.05 0.05
0.05 0.05 0.05 0.05 0.05 0.05 0.05 0.05 0.05 0.05
0.05 0.05 0.05 0.05 0.05 0.05 0.05 0.05 0.05 0.05
0.05 0.05 0.05 0.05 0.05 0.05 0.05 0.05 0.05 0.05
0.05 0.05 0.05 0.05 0.05 0.05 0.05 0.05 0.05 0.05
0.05 0.05 0.05 0.05 0.05 0.05 0.05 0.05 0.05 0.05
0.05 0.05 0.05 0.05 0.05 0.05 0.05 0.05 0.05 0.05
0.05 0.05 0.05 0.05 0.05 0.05 0.05 0.05 0.05 0.05
0.05 0.05 0.05 0.05 0.05 0.05 0.05 0.05 0.05 0.05
0.05 0.05 0.05 0.05 0.05 0.05 0.05 0.05 0.05 0.05
0.05 0.05 0.05 0.05 0.05 0.05 0.05 0.05 0.05 0.05
0.05 0.05 0.05 0.05 0.05 0.05 0.05 0.05 0.05 0.05
0.05 0.05 0.05 0.05 0.05 0.05 0.05 0.05 0.05 0.05
0.05 0.05 0.05 0.05 0.05 0.05 0.05 0.05 0.05 0.05
0.05 0.05 0.05 0.05 0.05 0.05 0.05 0.05 0.05 0.05
0.05 0.05 0.05 0.05 0.05 0.05 0.05 0.05 0.05 0.05
0.05 0.05 0.05 0.05 0.05 0.05 0.05 0.05 0.05 0.05
0.05 0.05 0.05 0.05 0.05 0.05 0.05 0.05 0.05 0.05
0.05 0.05 0.05 0.05 0.05 0.05 0.05 0.05 0.05 0.05
0.05 0.05 0.05 0.05 0.05 0.05 0.05 0.05 0.05 0.05
0.05 0.05 0.05 0.05 0.05 0.05 0.05 0.05 0.05 0.05
0.05 0.05 0.05 0.05 0.05 0.05 0.05 0.05 0.05 0.05
0.05 0.05 0.05 0.05 0.05 0.05 0.05 0.05 0.05 0.05
0.05 0.05 0.05 0.05 0.05 0.05 0.05 0.05 0.05 0.05
0.05 0.05 0.05 0.05 0.05 0.05 0.05 0.05 0.05 0.05
0.05 0.05 0.05 0.05 0.05 0.05 0.05 0.05 0.05 0.05
0.05 0.05 0.05 0.05 0.05 0.05 0.05 0.05 0.05 0.05
0.05 0.05 0.05 0.05 0.05 0.05 0.05 0.05 0.05 0.05
0.05 0.05 0.05 0.05 0.05 0.05 0.05 0.05 0.05 0.05
0.05 0.05 0.05 0.05 0.05 0.05 0.05 0.05 0.05 0.05
0.05 0.05 0.05 0.05 0.05 0.05 0.05 0.05 0.05 0.05
0.05 0.05 0.05 0.05 0.05 0.05 0.05 0.05 0.05 0.05
0.05 0.05 0.05 0.05 0.05 0.05 0.05 0.05 0.05 0.05
0.05 0.05 0.05 0.05 0.05 0.05 0.05 0.05 0.05 0.05
0.05 0.05 0.05 0.05 0.05 0.05 0.05 0.05 0.05 0.05
0.05 0.05 0.05 0.05 0.05 0.05 0.05 0.05 0.05 0.05
0.05 0.05 0.05 0.05 0.05 0.05 0.05 0.05 0.05 0.05
0.05 0.05 0.05 0.05 0.05 0.05 0.05 0.05 0.05 0.05
0.05 0.05 0.05 0.05 0.05 0.05 0.05 0.05 0.05 0.05
0.05 0.05 0.05 0.05 0.05 0.05 0.05 0.05 0.05 0.05
0.05 0.05 0.05 0.05 0.05 0.05 0.05 0.05 0.05 0.05
0.05 0.05 0.05 0.05 0.05 0.05 0.05 0.05 0.05 0.05
0.05 0.05 0.05 0.05 0.05 0.05 0.05 0.05 0.05 0.05
0.05 0.05 0.05 0.05 0.05 0.05 0.05 0.05 0.05 0.05
0.05 0.05 0.05 0.05 0.05 0.05 0.05 0.05 0.05 0.05
0.05 0.05 0.05 0.05 0.05 0.05 0.05 0.05 0.05 0.05
0.05 0.05 0.05 0.05 0.05 0.05 0.05 0.05 0.05 0.05
0.05 0.05 0.05 0.05 0.05 0.05 0.05 0.05 0.05 0.05
0.05 0.05 0.05 0.05 0.05 0.05 0.05 0.05 0.05 
p 1 900 float
87.1919 71.245 71.245 87.1919 37.3233 37.3233 10.5819 10.5819 2.54473 2.54473 7.37464
7.37464 13.973 13.973 16.7064 16.7064 16.5158 16.5158 16.9401 16.9401 20.8532
20.8532 27.3703 27.3703 32.4897 32.4897 34.3916 34.3916 34.4234 34.4234 33.8812
33.8812 33.0945 33.0945 32.126 32.126 31.0806 31.0806 30.0571 30.0571 29.1168
29.1168 28.2915 28.2915 27.5848 27.5848 26.9789 26.9789 26.4443 26.4443 25.9629
25.9629 25.5321 25.5321 25.1445 25.1445 24.7901 24.7901 24.4676 24.4676 24.1759
24.1759 23.9044 23.9044 23.6459 23.6459 23.4011 23.4011 23.1692 23.1692 22.9509
22.9509 22.7501 22.7501 22.5652 22.5652 22.3919 22.3919 22.2292 22.2292 22.0769
22.0769 21.9304 21.9304 21.7875 21.7875 21.65 21.65 21.5197 21.5197 21.3948
21.3948 21.2742 21.2742 21.1598 21.1598 21.0519 21.0519 20.9479 20.9479 20.846
20.846 20.7471 20.7471 20.651 20.651 20.5568 20.5568 20.4648 20.4648 20.3764
20.3764 20.2919 20.2919 20.2099 20.2099 20.1295 20.1295 20.0505 20.0505 19.973
19.973 19.8965 19.8965 19.8211 19.8211 19.748 19.748 19.6777 19.6777 19.6092
19.6092 19.542 19.542 19.4764 19.4764 19.4123 19.4123 19.3489 19.3489 19.2859
19.2859 19.2238 19.2238 19.1634 19.1634 19.1045 19.1045 19.0466 19.0466 18.9895
18.9895 18.9336 18.9336 18.8787 18.8787 18.8241 18.8241 18.7698 18.7698 18.7164
18.7164 18.6643 18.6643 18.613 18.613 18.5623 18.5623 18.5123 18.5123 18.463
18.463 18.4145 18.4145 18.3661 18.3661 18.318 18.318 18.2707 18.2707 18.2244
18.2244 18.1787 18.1787 18.1333 18.1333 18.0883 18.0883 18.044 18.044 18.0002
18.0002 17.9566 17.9566 17.9131 17.9131 17.8702 17.8702 17.8282 17.8282 17.7867
17.7867 17.7453 17.7453 17.7042 17.7042 17.6635 17.6635 17.6234 17.6234 17.5835
17.5835 17.5437 17.5437 17.5043 17.5043 17.4656 17.4656 17.4273 17.4273 17.3892
17.3892 17.3511 17.3511 17.3134 17.3134 17.2761 17.2761 17.2392 17.2392 17.2024
17.2024 17.1658 17.1658 17.1297 17.1297 17.0939 17.0939 17.0584 17.0584 17.0229
17.0229 16.9876 16.9876 16.9526 16.9526 16.918 16.918 16.8837 16.8837 16.8494
16.8494 16.8153 16.8153 16.7815 16.7815 16.7481 16.7481 16.7148 16.7148 16.6815
16.6815 16.6484 16.6484 16.6156 16.6156 16.5832 16.5832 16.551 16.551 16.5187
16.5187 16.4865 16.4865 16.4547 16.4547 16.4232 16.4232 16.3917 16.3917 16.3603
16.3603 16.3291 16.3291 16.2981 16.2981 16.2674 16.2674 16.2368 16.2368 16.2062
16.2062 16.1757 16.1757 16.1454 16.1454 16.1155 16.1155 16.0856 16.0856 16.0558
16.0558 16.0261 16.0261 15.9966 15.9966 15.9673 15.9673 15.9381 15.9381 15.9089
15.9089 15.8798 15.8798 15.8509 15.8509 15.8223 15.8223 15.7938 15.7938 15.7653
15.7653 15.7368 15.7368 15.7085 15.7085 15.6804 15.6804 15.6524 15.6524 15.6245
15.6245 15.5966 15.5966 15.5689 15.5689 15.5413 15.5413 15.5139 15.5139 15.4865
15.4865 15.4592 15.4592 15.432 15.432 15.4056 15.4056 15.3803 15.3803 15.356
15.356 15.3319 15.3319 15.3075 15.3075 15.283 15.283 15.2583 15.2583 15.2336
15.2336 15.2086 15.2086 15.1835 15.1835 15.1582 15.1582 15.1328 15.1328 15.1073
15.1073 15.0817 15.0817 15.0559 15.0559 15.0298 15.0298 15.0037 15.0037 14.9774
14.9774 14.9511 14.9511 14.9246 14.9246 14.8979 14.8979 14.871 14.871 14.844
14.844 14.8169 14.8169 14.7897 14.7897 14.7622 14.7622 14.7345 14.7345 14.7068
14.7068 14.679 14.679 14.651 14.651 14.6228 14.6228 14.5943 14.5943 14.5658
14.5658 14.5373 14.5373 14.5085 14.5085 14.4794 14.4794 14.4503 14.4503 14.421
14.421 14.3916 14.3916 14.3619 14.3619 14.3321 14.3321 14.3022 14.3022 14.2722
14.2722 14.2419 14.2419 14.2113 14.2113 14.1806 14.1806 14.1497 14.1497 14.1188
14.1188 14.0876 14.0876 14.0563 14.0563 14.0249 14.0249 13.9933 13.9933 13.9615
13.9615 13.9295 13.9295 13.8974 13.8974 13.8652 13.8652 13.8328 13.8328 13.8001
13.8001 13.7672 13.7672 13.7343 13.7343 13.7012 13.7012 13.6678 13.6678 13.6343
13.6343 13.6007 13.6007 13.5668 13.5668 13.5327 13.5327 13.4985 13.4985 13.4641
13.4641 13.4294 13.4294 13.3945 13.3945 13.3596 13.3596 13.3244 13.3244 13.289
13.289 13.2533 13.2533 13.2176 13.2176 13.1816 13.1816 13.1454 13.1454 13.109
13.109 13.0724 13.0724 13.0356 13.0356 12.9985 12.9985 12.9614 12.9614 12.924
12.924 12.8862 12.8862 12.8484 12.8484 12.8103 12.8103 12.7719 12.7719 12.7334
12.7334 12.6947 12.6947 12.6557 12.6557 12.6165 12.6165 12.5772 12.5772 12.5376
12.5376 12.4977 12.4977 12.4576 12.4576 12.4173 12.4173 12.3767 12.3767 12.3359
12.3359 12.2949 12.2949 12.2536 12.2536 12.2121 12.2121 12.1704 12.1704 12.1283
12.1283 12.086 12.086 12.0435 12.0435 12.0007 12.0007 11.9576 11.9576 11.9144
11.9144 11.8708 11.8708 11.8269 11.8269 11.7828 11.7828 11.7384 11.7384 11.6937
11.6937 11.6488 11.6488 11.6036 11.6036 11.558 11.558 11.5123 11.5123 11.4662
11.4662 11.4198 11.4198 11.3731 11.3731 11.3261 11.3261 11.2788 11.2788 11.2312
11.2312 11.1833 11.1833 11.1351 11.1351 11.0866 11.0866 11.0377 11.0377 10.9885
10.9885 10.939 10.939 10.8891 10.8891 10.839 10.839 10.7884 10.7884 10.7375
10.7375 10.6864 10.6864 10.6348 10.6348 10.5829 10.5829 10.5306 10.5306 10.4779
10.4779 10.425 10.425 10.3716 10.3716 10.3178 10.3178 10.2637 10.2637 10.2092
10.2092 10.1543 10.1543 10.099 10.099 10.0433 10.0433 9.98726 9.98726 9.93073
9.93073 9.8738 9.8738 9.81648 9.81648 9.7587 9.7587 9.70056 9.70056 9.64195
9.64195 9.58289 9.58289 9.5234 9.5234 9.46345 9.46345 9.4031 9.4031 9.34224
9.34224 9.28093 9.28093 9.21915 9.21915 9.15688 9.15688 9.09417 9.09417 9.03094
9.03094 8.96724 8.96724 8.90302 8.90302 8.8383 8.8383 8.77308 8.77308 8.70733
8.70733 8.6411 8.6411 8.5743 8.5743 8.50698 8.50698 8.43912 8.43912 8.3707
8.3707 8.30174 8.30174 8.2322 8.2322 8.16212 8.16212 8.09142 8.09142 8.02017
8.02017 7.94818 7.94818 7.87578 7.87578 7.80213 7.80213 7.72456 7.72456 7.63993
7.63993 7.54941 7.54941 7.45847 7.45847 7.36846 7.36846 7.27854 7.27854 7.18898
7.18898 7.09965 7.09965 7.01058 7.01058 6.92173 6.92173 6.8331 6.8331 6.74468
6.74468 6.65648 6.65648 6.56849 6.56849 6.48071 6.48071 6.39313 6.39313 6.30573
6.30573 6.2185 6.2185 6.13144 6.13144 6.04454 6.04454 5.95784 5.95784 5.87132
5.87132 5.785 5.785 5.69887 5.69887 5.6129 5.6129 5.52712 5.52712 5.44148
5.44148 5.35598 5.35598 5.27063 5.27063 5.18543 5.18543 5.10037 5.10037 5.01546
5.01546 4.93072 4.93072 4.84609 4.84609 4.76163 4.76163 4.67731 4.67731 4.59312
4.59312 4.5091 4.5091 4.4252 4.4252 4.34147 4.34147 4.25786 4.25786 4.17438
4.17438 4.09107 4.09107 4.00787 4.00787 3.92483 3.92483 3.84192 3.84192 3.75914
3.75914 3.67652 3.67652 3.59402 3.59402 3.51169 3.51169 3.42949 3.42949 3.34741
3.34741 3.26554 3.26554 3.18377 3.18377 3.10214 3.10214 3.0207 3.0207 2.93938
2.93938 2.85823 2.85823 2.77726 2.77726 2.69642 2.69642 2.61577 2.61577 2.53528
2.53528 2.45496 2.45496 2.37484 2.37484 2.2949 2.2949 2.21513 2.21513 2.13561
2.13561 2.05625 2.05625 1.97711 1.97711 1.89824 1.89824 1.81958 1.81958 1.74115
1.74115 1.66304 1.66304 1.58517 1.58517 1.50759 1.50759 1.43037 1.43037 1.35348
1.35348 1.27696 1.27696 1.20083 1.20083 1.12522 1.12522 1.04994 1.04994 0.975545
0.975545 0.901187 0.901187 0.828671 0.828671 0.754791 0.754791 0.686086 0.686086 0.610578
0.610578 0.55145 0.55145 0.465708 0.465708 0.435694 0.435694 0.30966 0.30966 0.370684
0.370684 0.102858 0.102858 0.419557 0.419557 -0.230866 -0.230866 -1.69509 -1.69509 
k 1 900 float
7.8464e-05 4.80286e-05 4.80286e-05 7.8464e-05 1.66703e-05 1.66703e-05 2.8539e-05 2.8539e-05 0.000112097 0.000112097 0.000527242
0.000527242 0.00248531 0.00248531 0.0112117 0.0112117 0.0491259 0.0491259 0.198319 0.198319 0.74314
0.74314 1.47293 1.47293 1.98562 1.98562 2.34038 2.34038 2.58091 2.58091 2.73087
2.73087 2.79759 2.79759 2.80909 2.80909 2.80588 2.80588 2.7875 2.7875 2.75313
2.75313 2.71594 2.71594 2.67921 2.67921 2.64273 2.64273 2.60711 2.60711 2.57268
2.57268 2.5396 2.5396 2.50798 2.50798 2.47765 2.47765 2.4486 2.4486 2.42099
2.42099 2.39432 2.39432 2.36815 2.36815 2.34261 2.34261 2.31808 2.31808 2.29472
2.29472 2.27248 2.27248 2.25124 2.25124 2.23087 2.23087 2.21132 2.21132 2.19237
2.19237 2.17389 2.17389 2.15587 2.15587 2.13835 2.13835 2.12138 2.12138 2.10497
2.10497 2.08909 2.08909 2.07371 2.07371 2.05884 2.05884 2.0444 2.0444 2.03028
2.03028 2.01645 2.01645 2.0029 2.0029 1.98968 1.98968 1.9768 1.9768 1.96426
1.96426 1.95206 1.95206 1.94019 1.94019 1.92857 1.92857 1.91711 1.91711 1.90585
1.90585 1.89481 1.89481 1.88401 1.88401 1.87345 1.87345 1.86314 1.86314 1.85308
1.85308 1.84325 1.84325 1.83361 1.83361 1.82414 1.82414 1.81483 1.81483 1.80567
1.80567 1.79668 1.79668 1.78786 1.78786 1.77922 1.77922 1.77075 1.77075 1.76245
1.76245 1.75429 1.75429 1.74626 1.74626 1.73835 1.73835 1.73056 1.73056 1.72289
1.72289 1.71536 1.71536 1.70796 1.70796 1.70069 1.70069 1.69354 1.69354 1.6865
1.6865 1.67955 1.67955 1.67271 1.67271 1.66596 1.66596 1.6593 1.6593 1.65275
1.65275 1.64631 1.64631 1.63997 1.63997 1.63371 1.63371 1.62754 1.62754 1.62145
1.62145 1.61543 1.61543 1.6095 1.6095 1.60364 1.60364 1.59786 1.59786 1.59217
1.59217 1.58656 1.58656 1.58101 1.58101 1.57554 1.57554 1.57012 1.57012 1.56478
1.56478 1.55949 1.55949 1.55427 1.55427 1.54912 1.54912 1.54404 1.54404 1.53901
1.53901 1.53405 1.53405 1.52914 1.52914 1.52428 1.52428 1.51947 1.51947 1.51472
1.51472 1.51002 1.51002 1.50538 1.50538 1.50079 1.50079 1.49626 1.49626 1.49177
1.49177 1.48732 1.48732 1.48292 1.48292 1.47857 1.47857 1.47426 1.47426 1.47
1.47 1.46578 1.46578 1.4616 1.4616 1.45747 1.45747 1.45338 1.45338 1.44933
1.44933 1.44531 1.44531 1.44134 1.44134 1.4374 1.4374 1.4335 1.4335 1.42964
1.42964 1.42582 1.42582 1.42203 1.42203 1.41828 1.41828 1.41456 1.41456 1.41087
1.41087 1.40721 1.40721 1.40359 1.40359 1.4 1.4 1.39644 1.39644 1.39291
1.39291 1.38942 1.38942 1.38595 1.38595 1.38251 1.38251 1.3791 1.3791 1.37572
1.37572 1.37237 1.37237 1.36905 1.36905 1.36575 1.36575 1.36249 1.36249 1.35924
1.35924 1.35603 1.35603 1.35284 1.35284 1.34967 1.34967 1.34653 1.34653 1.34342
1.34342 1.34033 1.34033 1.33726 1.33726 1.33422 1.33422 1.3312 1.3312 1.32821
1.32821 1.32523 1.32523 1.32228 1.32228 1.31935 1.31935 1.31644 1.31644 1.31356
1.31356 1.31069 1.31069 1.30785 1.30785 1.30511 1.30511 1.30253 1.30253 1.30003
1.30003 1.29753 1.29753 1.29502 1.29502 1.2925 1.2925 1.28998 1.28998 1.28746
1.28746 1.28493 1.28493 1.28239 1.28239 1.27985 1.27985 1.2773 1.2773 1.27475
1.27475 1.2722 1.2722 1.26964 1.26964 1.26707 1.26707 1.2645 1.2645 1.26193
1.26193 1.25935 1.25935 1.25677 1.25677 1.25418 1.25418 1.25159 1.25159 1.24899
1.24899 1.24639 1.24639 1.24379 1.24379 1.24118 1.24118 1.23857 1.23857 1.23596
1.23596 1.23334 1.23334 1.23072 1.23072 1.22809 1.22809 1.22546 1.22546 1.22283
1.22283 1.2202 1.2202 1.21756 1.21756 1.21492 1.21492 1.21227 1.21227 1.20963
1.20963 1.20698 1.20698 1.20433 1.20433 1.20167 1.20167 1.19902 1.19902 1.19636
1.19636 1.19369 1.19369 1.19102 1.19102 1.18834 1.18834 1.18566 1.18566 1.18297
1.18297 1.18029 1.18029 1.1776 1.1776 1.17492 1.17492 1.17223 1.17223 1.16954
1.16954 1.16684 1.16684 1.16415 1.16415 1.16145 1.16145 1.15876 1.15876 1.15606
1.15606 1.15336 1.15336 1.15066 1.15066 1.14796 1.14796 1.14526 1.14526 1.14256
1.14256 1.13986 1.13986 1.13715 1.13715 1.13445 1.13445 1.13175 1.13175 1.12904
1.12904 1.12634 1.12634 1.12363 1.12363 1.12093 1.12093 1.11823 1.11823 1.11552
1.11552 1.11282 1.11282 1.11012 1.11012 1.10741 1.10741 1.10471 1.10471 1.10201
1.10201 1.09931 1.09931 1.09661 1.09661 1.09391 1.09391 1.09121 1.09121 1.08851
1.08851 1.08581 1.08581 1.08312 1.08312 1.08042 1.08042 1.07771 1.07771 1.07501
1.07501 1.07231 1.07231 1.0696 1.0696 1.0669 1.0669 1.06421 1.06421 1.06151
1.06151 1.05881 1.05881 1.05612 1.05612 1.05343 1.05343 1.05074 1.05074 1.04805
1.04805 1.04537 1.04537 1.04268 1.04268 1.04 1.04 1.03732 1.03732 1.03465
1.03465 1.03197 1.03197 1.0293 1.0293 1.02663 1.02663 1.02397 1.02397 1.0213
1.0213 1.01864 1.01864 1.01598 1.01598 1.01333 1.01333 1.01067 1.01067 1.00802
1.00802 1.00538 1.00538 1.00273 1.00273 1.00009 1.00009 0.997453 0.997453 0.994818
0.994818 0.992186 0.992186 0.989558 0.989558 0.986933 0.986933 0.984312 0.984312 0.981694
0.981694 0.979079 0.979079 0.976468 0.976468 0.973861 0.973861 0.971257 0.971257 0.968657
0.968657 0.966061 0.966061 0.963468 0.963468 0.960879 0.960879 0.958295 0.958295 0.955714
0.955714 0.953137 0.953137 0.950564 0.950564 0.947995 0.947995 0.94543 0.94543 0.94287
0.94287 0.940313 0.940313 0.937761 0.937761 0.935213 0.935213 0.932669 0.932669 0.93013
0.93013 0.927595 0.927595 0.925065 0.925065 0.922539 0.922539 0.920017 0.920017 0.9175
0.9175 0.914988 0.914988 0.91248 0.91248 0.909976 0.909976 0.907478 0.907478 0.904984
0.904984 0.902495 0.902495 0.900011 0.900011 0.897531 0.897531 0.895057 0.895057 0.892587
0.892587 0.890122 0.890122 0.887662 0.887662 0.885207 0.885207 0.882757 0.882757 0.880312
0.880312 0.877872 0.877872 0.875437 0.875437 0.873007 0.873007 0.870583 0.870583 0.868163
0.868163 0.865749 0.865749 0.86334 0.86334 0.860936 0.860936 0.858538 0.858538 0.856144
0.856144 0.853757 0.853757 0.851374 0.851374 0.848997 0.848997 0.846625 0.846625 0.844258
0.844258 0.841897 0.841897 0.839542 0.839542 0.837192 0.837192 0.834718 0.834718 0.831997
0.831997 0.829185 0.829185 0.826417 0.826417 0.823692 0.823692 0.821008 0.821008 0.818365
0.818365 0.815761 0.815761 0.813195 0.813195 0.810668 0.810668 0.808176 0.808176 0.805721
0.805721 0.8033 0.8033 0.800914 0.800914 0.79856 0.79856 0.796239 0.796239 0.79395
0.79395 0.791691 0.791691 0.789463 0.789463 0.787264 0.787264 0.785094 0.785094 0.782952
0.782952 0.780837 0.780837 0.77875 0.77875 0.776689 0.776689 0.774654 0.774654 0.772644
0.772644 0.770659 0.770659 0.768697 0.768697 0.76676 0.76676 0.764845 0.764845 0.762953
0.762953 0.761083 0.761083 0.759236 0.759236 0.757409 0.757409 0.755603 0.755603 0.753818
0.753818 0.752053 0.752053 0.750307 0.750307 0.748581 0.748581 0.746874 0.746874 0.745185
0.745185 0.743515 0.743515 0.741862 0.741862 0.740227 0.740227 0.738609 0.738609 0.737008
0.737008 0.735423 0.735423 0.733855 0.733855 0.732303 0.732303 0.730766 0.730766 0.729245
0.729245 0.727739 0.727739 0.726248 0.726248 0.724771 0.724771 0.723309 0.723309 0.721861
0.721861 0.720427 0.720427 0.719007 0.719007 0.7176 0.7176 0.716206 0.716206 0.714825
0.714825 0.713456 0.713456 0.712101 0.712101 0.710757 0.710757 0.709426 0.709426 0.708107
0.708107 0.706799 0.706799 0.705503 0.705503 0.704218 0.704218 0.702945 0.702945 0.701682
0.701682 0.70043 0.70043 0.699188 0.699188 0.697958 0.697958 0.696737 0.696737 0.695527
0.695527 0.694326 0.694326 0.693136 0.693136 0.691953 0.691953 0.690782 0.690782 0.689617
0.689617 0.688465 0.688465 0.687317 0.687317 0.686182 0.686182 0.685051 0.685051 0.68393
0.68393 0.682817 0.682817 0.68161 0.68161 0.68036 0.68036 0.67905 0.67905 0.677876
0.677876 0.67648 0.67648 0.675433 0.675433 0.674021 0.674021 0.672741 0.672741 
omega 1 900 float
1.82686e+06 1.82686e+06 1.82686e+06 1.82686e+06 1.82686e+06 1.82686e+06 1.82686e+06 1.82686e+06 1.82686e+06 1.82686e+06 1.82686e+06
1.82686e+06 1.82688e+06 1.82688e+06 1.82696e+06 1.82696e+06 1.82729e+06 1.82729e+06 1.82862e+06 1.82862e+06 1.83348e+06
1.83348e+06 1.83996e+06 1.83996e+06 1.8445e+06 1.8445e+06 1.84763e+06 1.84763e+06 1.84976e+06 1.84976e+06 1.85108e+06
1.85108e+06 1.85167e+06 1.85167e+06 1.85177e+06 1.85177e+06 1.85174e+06 1.85174e+06 1.85158e+06 1.85158e+06 1.85127e+06
1.85127e+06 1.85095e+06 1.85095e+06 1.85062e+06 1.85062e+06 1.8503e+06 1.8503e+06 1.84999e+06 1.84999e+06 1.84968e+06
1.84968e+06 1.84939e+06 1.84939e+06 1.84911e+06 1.84911e+06 1.84885e+06 1.84885e+06 1.84859e+06 1.84859e+06 1.84835e+06
1.84835e+06 1.84811e+06 1.84811e+06 1.84788e+06 1.84788e+06 1.84765e+06 1.84765e+06 1.84744e+06 1.84744e+06 1.84723e+06
1.84723e+06 1.84703e+06 1.84703e+06 1.84685e+06 1.84685e+06 1.84667e+06 1.84667e+06 1.84649e+06 1.84649e+06 1.84633e+06
1.84633e+06 1.84616e+06 1.84616e+06 1.846e+06 1.846e+06 1.84585e+06 1.84585e+06 1.8457e+06 1.8457e+06 1.84555e+06
1.84555e+06 1.84541e+06 1.84541e+06 1.84528e+06 1.84528e+06 1.84515e+06 1.84515e+06 1.84502e+06 1.84502e+06 1.84489e+06
1.84489e+06 1.84477e+06 1.84477e+06 1.84465e+06 1.84465e+06 1.84454e+06 1.84454e+06 1.84442e+06 1.84442e+06 1.84431e+06
1.84431e+06 1.8442e+06 1.8442e+06 1.8441e+06 1.8441e+06 1.84399e+06 1.84399e+06 1.84389e+06 1.84389e+06 1.84379e+06
1.84379e+06 1.8437e+06 1.8437e+06 1.8436e+06 1.8436e+06 1.84351e+06 1.84351e+06 1.84342e+06 1.84342e+06 1.84333e+06
1.84333e+06 1.84324e+06 1.84324e+06 1.84315e+06 1.84315e+06 1.84307e+06 1.84307e+06 1.84299e+06 1.84299e+06 1.84291e+06
1.84291e+06 1.84283e+06 1.84283e+06 1.84275e+06 1.84275e+06 1.84267e+06 1.84267e+06 1.8426e+06 1.8426e+06 1.84252e+06
1.84252e+06 1.84245e+06 1.84245e+06 1.84238e+06 1.84238e+06 1.84231e+06 1.84231e+06 1.84224e+06 1.84224e+06 1.84217e+06
1.84217e+06 1.84211e+06 1.84211e+06 1.84204e+06 1.84204e+06 1.84198e+06 1.84198e+06 1.84191e+06 1.84191e+06 1.84185e+06
1.84185e+06 1.84179e+06 1.84179e+06 1.84173e+06 1.84173e+06 1.84167e+06 1.84167e+06 1.84161e+06 1.84161e+06 1.84155e+06
1.84155e+06 1.8415e+06 1.8415e+06 1.84144e+06 1.84144e+06 1.84138e+06 1.84138e+06 1.84133e+06 1.84133e+06 1.84128e+06
1.84128e+06 1.84122e+06 1.84122e+06 1.84117e+06 1.84117e+06 1.84112e+06 1.84112e+06 1.84107e+06 1.84107e+06 1.84102e+06
1.84102e+06 1.84097e+06 1.84097e+06 1.84092e+06 1.84092e+06 1.84087e+06 1.84087e+06 1.84082e+06 1.84082e+06 1.84077e+06
1.84077e+06 1.84073e+06 1.84073e+06 1.84068e+06 1.84068e+06 1.84064e+06 1.84064e+06 1.84059e+06 1.84059e+06 1.84055e+06
1.84055e+06 1.8405e+06 1.8405e+06 1.84046e+06 1.84046e+06 1.84041e+06 1.84041e+06 1.84037e+06 1.84037e+06 1.84033e+06
1.84033e+06 1.84029e+06 1.84029e+06 1.84025e+06 1.84025e+06 1.84021e+06 1.84021e+06 1.84017e+06 1.84017e+06 1.84013e+06
1.84013e+06 1.84009e+06 1.84009e+06 1.84005e+06 1.84005e+06 1.84001e+06 1.84001e+06 1.83997e+06 1.83997e+06 1.83993e+06
1.83993e+06 1.8399e+06 1.8399e+06 1.83986e+06 1.83986e+06 1.83982e+06 1.83982e+06 1.83979e+06 1.83979e+06 1.83975e+06
1.83975e+06 1.83971e+06 1.83971e+06 1.83968e+06 1.83968e+06 1.83964e+06 1.83964e+06 1.83961e+06 1.83961e+06 1.83958e+06
1.83958e+06 1.83954e+06 1.83954e+06 1.83951e+06 1.83951e+06 1.83948e+06 1.83948e+06 1.83944e+06 1.83944e+06 1.83941e+06
1.83941e+06 1.83938e+06 1.83938e+06 1.83934e+06 1.83934e+06 1.83931e+06 1.83931e+06 1.83928e+06 1.83928e+06 1.83925e+06
1.83925e+06 1.83922e+06 1.83922e+06 1.83919e+06 1.83919e+06 1.83916e+06 1.83916e+06 1.83913e+06 1.83913e+06 1.8391e+06
1.8391e+06 1.83907e+06 1.83907e+06 1.83904e+06 1.83904e+06 1.83901e+06 1.83901e+06 1.83898e+06 1.83898e+06 1.83895e+06
1.83895e+06 1.83892e+06 1.83892e+06 1.83889e+06 1.83889e+06 1.83887e+06 1.83887e+06 1.83884e+06 1.83884e+06 1.83881e+06
1.83881e+06 1.83878e+06 1.83878e+06 1.83876e+06 1.83876e+06 1.83873e+06 1.83873e+06 1.8387e+06 1.8387e+06 1.83868e+06
1.83868e+06 1.83865e+06 1.83865e+06 1.83862e+06 1.83862e+06 1.8386e+06 1.8386e+06 1.83857e+06 1.83857e+06 1.83855e+06
1.83855e+06 1.83852e+06 1.83852e+06 1.8385e+06 1.8385e+06 1.83847e+06 1.83847e+06 1.83845e+06 1.83845e+06 1.83843e+06
1.83843e+06 1.8384e+06 1.8384e+06 1.83838e+06 1.83838e+06 1.83836e+06 1.83836e+06 1.83834e+06 1.83834e+06 1.83831e+06
1.83831e+06 1.83829e+06 1.83829e+06 1.83827e+06 1.83827e+06 1.83825e+06 1.83825e+06 1.83822e+06 1.83822e+06 1.8382e+06
1.8382e+06 1.83818e+06 1.83818e+06 1.83816e+06 1.83816e+06 1.83813e+06 1.83813e+06 1.83811e+06 1.83811e+06 1.83809e+06
1.83809e+06 1.83807e+06 1.83807e+06 1.83804e+06 1.83804e+06 1.83802e+06 1.83802e+06 1.838e+06 1.838e+06 1.83797e+06
1.83797e+06 1.83795e+06 1.83795e+06 1.83793e+06 1.83793e+06 1.8379e+06 1.8379e+06 1.83788e+06 1.83788e+06 1.83786e+06
1.83786e+06 1.83783e+06 1.83783e+06 1.83781e+06 1.83781e+06 1.83779e+06 1.83779e+06 1.83776e+06 1.83776e+06 1.83774e+06
1.83774e+06 1.83772e+06 1.83772e+06 1.83769e+06 1.83769e+06 1.83767e+06 1.83767e+06 1.83765e+06 1.83765e+06 1.83762e+06
1.83762e+06 1.8376e+06 1.8376e+06 1.83758e+06 1.83758e+06 1.83755e+06 1.83755e+06 1.83753e+06 1.83753e+06 1.83751e+06
1.83751e+06 1.83748e+06 1.83748e+06 1.83746e+06 1.83746e+06 1.83743e+06 1.83743e+06 1.83741e+06 1.83741e+06 1.83739e+06
1.83739e+06 1.83736e+06 1.83736e+06 1.83734e+06 1.83734e+06 1.83732e+06 1.83732e+06 1.83729e+06 1.83729e+06 1.83727e+06
1.83727e+06 1.83724e+06 1.83724e+06 1.83722e+06 1.83722e+06 1.8372e+06 1.8372e+06 1.83717e+06 1.83717e+06 1.83715e+06
1.83715e+06 1.83712e+06 1.83712e+06 1.8371e+06 1.8371e+06 1.83708e+06 1.83708e+06 1.83705e+06 1.83705e+06 1.83703e+06
1.83703e+06 1.837e+06 1.837e+06 1.83698e+06 1.83698e+06 1.83696e+06 1.83696e+06 1.83693e+06 1.83693e+06 1.83691e+06
1.83691e+06 1.83688e+06 1.83688e+06 1.83686e+06 1.83686e+06 1.83684e+06 1.83684e+06 1.83681e+06 1.83681e+06 1.83679e+06
1.83679e+06 1.83676e+06 1.83676e+06 1.83674e+06 1.83674e+06 1.83672e+06 1.83672e+06 1.83669e+06 1.83669e+06 1.83667e+06
1.83667e+06 1.83664e+06 1.83664e+06 1.83662e+06 1.83662e+06 1.8366e+06 1.8366e+06 1.83657e+06 1.83657e+06 1.83655e+06
1.83655e+06 1.83652e+06 1.83652e+06 1.8365e+06 1.8365e+06 1.83648e+06 1.83648e+06 1.83645e+06 1.83645e+06 1.83643e+06
1.83643e+06 1.8364e+06 1.8364e+06 1.83638e+06 1.83638e+06 1.83636e+06 1.83636e+06 1.83633e+06 1.83633e+06 1.83631e+06
1.83631e+06 1.83628e+06 1.83628e+06 1.83626e+06 1.83626e+06 1.83624e+06 1.83624e+06 1.83621e+06 1.83621e+06 1.83619e+06
1.83619e+06 1.83617e+06 1.83617e+06 1.83614e+06 1.83614e+06 1.83612e+06 1.83612e+06 1.83609e+06 1.83609e+06 1.83607e+06
1.83607e+06 1.83605e+06 1.83605e+06 1.83602e+06 1.83602e+06 1.836e+06 1.836e+06 1.83598e+06 1.83598e+06 1.83595e+06
1.83595e+06 1.83593e+06 1.83593e+06 1.8359e+06 1.8359e+06 1.83588e+06 1.83588e+06 1.83586e+06 1.83586e+06 1.83583e+06
1.83583e+06 1.83581e+06 1.83581e+06 1.83579e+06 1.83579e+06 1.83576e+06 1.83576e+06 1.83574e+06 1.83574e+06 1.83572e+06
1.83572e+06 1.83569e+06 1.83569e+06 1.83567e+06 1.83567e+06 1.83565e+06 1.83565e+06 1.83562e+06 1.83562e+06 1.8356e+06
1.8356e+06 1.83558e+06 1.83558e+06 1.83555e+06 1.83555e+06 1.83553e+06 1.83553e+06 1.83551e+06 1.83551e+06 1.83548e+06
1.83548e+06 1.83546e+06 1.83546e+06 1.83544e+06 1.83544e+06 1.83541e+06 1.83541e+06 1.83539e+06 1.83539e+06 1.83537e+06
1.83537e+06 1.83535e+06 1.83535e+06 1.83532e+06 1.83532e+06 1.8353e+06 1.8353e+06 1.83528e+06 1.83528e+06 1.83525e+06
1.83525e+06 1.83523e+06 1.83523e+06 1.83521e+06 1.83521e+06 1.83519e+06 1.83519e+06 1.83516e+06 1.83516e+06 1.83514e+06
1.83514e+06 1.83512e+06 1.83512e+06 1.8351e+06 1.8351e+06 1.83507e+06 1.83507e+06 1.83505e+06 1.83505e+06 1.83503e+06
1.83503e+06 1.83501e+06 1.83501e+06 1.83498e+06 1.83498e+06 1.83496e+06 1.83496e+06 1.83494e+06 1.83494e+06 1.83492e+06
1.83492e+06 1.8349e+06 1.8349e+06 1.83487e+06 1.83487e+06 1.83485e+06 1.83485e+06 1.83483e+06 1.83483e+06 1.83481e+06
1.83481e+06 1.83479e+06 1.83479e+06 1.83476e+06 1.83476e+06 1.83474e+06 1.83474e+06 1.83472e+06 1.83472e+06 1.8347e+06
1.8347e+06 1.83468e+06 1.83468e+06 1.83466e+06 1.83466e+06 1.83463e+06 1.83463e+06 1.83461e+06 1.83461e+06 1.83459e+06
1.83459e+06 1.83457e+06 1.83457e+06 1.83455e+06 1.83455e+06 1.83453e+06 1.83453e+06 1.8345e+06 1.8345e+06 1.83448e+06
1.83448e+06 1.83446e+06 1.83446e+06 1.83444e+06 1.83444e+06 1.83442e+06 1.83442e+06 1.8344e+06 1.8344e+06 1.83438e+06
1.83438e+06 1.83436e+06 1.83436e+06 1.83434e+06 1.83434e+06 1.83431e+06 1.83431e+06 1.83429e+06 1.83429e+06 1.83427e+06
1.83427e+06 1.83424e+06 1.83424e+06 1.83422e+06 1.83422e+06 1.83419e+06 1.83419e+06 1.83417e+06 1.83417e+06 1.83415e+06
1.83415e+06 1.83412e+06 1.83412e+06 1.8341e+06 1.8341e+06 1.83408e+06 1.83408e+06 1.83406e+06 1.83406e+06 1.83404e+06
1.83404e+06 1.83401e+06 1.83401e+06 1.83399e+06 1.83399e+06 1.83397e+06 1.83397e+06 1.83395e+06 1.83395e+06 1.83393e+06
1.83393e+06 1.83391e+06 1.83391e+06 1.83389e+06 1.83389e+06 1.83387e+06 1.83387e+06 1.83385e+06 1.83385e+06 1.83383e+06
1.83383e+06 1.83381e+06 1.83381e+06 1.8338e+06 1.8338e+06 1.83378e+06 1.83378e+06 1.83376e+06 1.83376e+06 1.83374e+06
1.83374e+06 1.83372e+06 1.83372e+06 1.83371e+06 1.83371e+06 1.83369e+06 1.83369e+06 1.83367e+06 1.83367e+06 1.83365e+06
1.83365e+06 1.83364e+06 1.83364e+06 1.83362e+06 1.83362e+06 1.83361e+06 1.83361e+06 1.83359e+06 1.83359e+06 1.83357e+06
1.83357e+06 1.83356e+06 1.83356e+06 1.83354e+06 1.83354e+06 1.83353e+06 1.83353e+06 1.83351e+06 1.83351e+06 1.8335e+06
1.8335e+06 1.83348e+06 1.83348e+06 1.83347e+06 1.83347e+06 1.83345e+06 1.83345e+06 1.83344e+06 1.83344e+06 1.83342e+06
1.83342e+06 1.83341e+06 1.83341e+06 1.8334e+06 1.8334e+06 1.83338e+06 1.83338e+06 1.83337e+06 1.83337e+06 1.83335e+06
1.83335e+06 1.83334e+06 1.83334e+06 1.83333e+06 1.83333e+06 1.83331e+06 1.83331e+06 1.8333e+06 1.8333e+06 1.83329e+06
1.83329e+06 1.83328e+06 1.83328e+06 1.83326e+06 1.83326e+06 1.83325e+06 1.83325e+06 1.83324e+06 1.83324e+06 1.83323e+06
1.83323e+06 1.83321e+06 1.83321e+06 1.8332e+06 1.8332e+06 1.83319e+06 1.83319e+06 1.83318e+06 1.83318e+06 1.83317e+06
1.83317e+06 1.83316e+06 1.83316e+06 1.83314e+06 1.83314e+06 1.83313e+06 1.83313e+06 1.83312e+06 1.83312e+06 1.83311e+06
1.83311e+06 1.8331e+06 1.8331e+06 1.83309e+06 1.83309e+06 1.83308e+06 1.83308e+06 1.83307e+06 1.83307e+06 1.83305e+06
1.83305e+06 1.83304e+06 1.83304e+06 1.83303e+06 1.83303e+06 1.83302e+06 1.83302e+06 1.83301e+06 1.83301e+06 1.833e+06
1.833e+06 1.83299e+06 1.83299e+06 1.83298e+06 1.83298e+06 1.83297e+06 1.83297e+06 1.83296e+06 1.83296e+06 1.83295e+06
1.83295e+06 1.83294e+06 1.83294e+06 1.83293e+06 1.83293e+06 1.83292e+06 1.83292e+06 1.83291e+06 1.83291e+06 1.8329e+06
1.8329e+06 1.83289e+06 1.83289e+06 1.83288e+06 1.83288e+06 1.83286e+06 1.83286e+06 1.83285e+06 1.83285e+06 
Cx 1 900 float
0.000485708 0.00097199 0.00097199 0.000485708 0.0019457 0.0019457 0.00292171 0.00292171 0.00390002 0.00390002 0.00488064
0.00488064 0.00586358 0.00586358 0.00684883 0.00684883 0.00783642 0.00783642 0.00882633 0.00882633 0.00981858
0.00981858 0.0108132 0.0108132 0.0118101 0.0118101 0.0128094 0.0128094 0.013811 0.013811 0.0148151
0.0148151 0.0158214 0.0158214 0.0168302 0.0168302 0.0178413 0.0178413 0.0188549 0.0188549 0.0198708
0.0198708 0.0208891 0.0208891 0.0219098 0.0219098 0.0229329 0.0229329 0.0239585 0.0239585 0.0249864
0.0249864 0.0260168 0.0260168 0.0270496 0.0270496 0.0280849 0.0280849 0.0291226 0.0291226 0.0301628
0.0301628 0.0312054 0.0312054 0.0322504 0.0322504 0.033298 0.033298 0.034348 0.034348 0.0354004
0.0354004 0.0364554 0.0364554 0.0375129 0.0375129 0.0385728 0.0385728 0.0396353 0.0396353 0.0407002
0.0407002 0.0417677 0.0417677 0.0428377 0.0428377 0.0439102 0.0439102 0.0449853 0.0449853 0.0460629
0.0460629 0.047143 0.047143 0.0482257 0.0482257 0.0493109 0.0493109 0.0503987 0.0503987 0.0514891
0.0514891 0.052582 0.052582 0.0536775 0.0536775 0.0547756 0.0547756 0.0558763 0.0558763 0.0569796
0.0569796 0.0580855 0.0580855 0.059194 0.059194 0.0603051 0.0603051 0.0614189 0.0614189 0.0625353
0.0625353 0.0636543 0.0636543 0.0647759 0.0647759 0.0659002 0.0659002 0.0670272 0.0670272 0.0681568
0.0681568 0.0692891 0.0692891 0.070424 0.070424 0.0715616 0.0715616 0.0727019 0.0727019 0.0738449
0.0738449 0.0749906 0.0749906 0.076139 0.076139 0.0772902 0.0772902 0.078444 0.078444 0.0796005
0.0796005 0.0807598 0.0807598 0.0819219 0.0819219 0.0830866 0.0830866 0.0842541 0.0842541 0.0854244
0.0854244 0.0865974 0.0865974 0.0877732 0.0877732 0.0889518 0.0889518 0.0901332 0.0901332 0.0913173
0.0913173 0.0925042 0.0925042 0.093694 0.093694 0.0948865 0.0948865 0.0960819 0.0960819 0.0972801
0.0972801 0.0984811 0.0984811 0.0996849 0.0996849 0.100892 0.100892 0.102101 0.102101 0.103314
0.103314 0.104529 0.104529 0.105747 0.105747 0.106968 0.106968 0.108192 0.108192 0.109419
0.109419 0.110648 0.110648 0.111881 0.111881 0.113116 0.113116 0.114355 0.114355 0.115596
0.115596 0.11684 0.11684 0.118087 0.118087 0.119337 0.119337 0.120591 0.120591 0.121847
0.121847 0.123106 0.123106 0.124368 0.124368 0.125632 0.125632 0.1269 0.1269 0.128171
0.128171 0.129445 0.129445 0.130722 0.130722 0.132002 0.132002 0.133285 0.133285 0.134571
0.134571 0.13586 0.13586 0.137152 0.137152 0.138447 0.138447 0.139745 0.139745 0.141047
0.141047 0.142351 0.142351 0.143658 0.143658 0.144969 0.144969 0.146282 0.146282 0.147599
0.147599 0.148919 0.148919 0.150242 0.150242 0.151568 0.151568 0.152897 0.152897 0.154229
0.154229 0.155565 0.155565 0.156903 0.156903 0.158245 0.158245 0.15959 0.15959 0.160938
0.160938 0.162289 0.162289 0.163643 0.163643 0.165001 0.165001 0.166362 0.166362 0.167726
0.167726 0.169093 0.169093 0.170464 0.170464 0.171838 0.171838 0.173214 0.173214 0.174595
0.174595 0.175978 0.175978 0.177365 0.177365 0.178755 0.178755 0.180148 0.180148 0.181545
0.181545 0.182945 0.182945 0.184348 0.184348 0.185754 0.185754 0.187164 0.187164 0.188577
0.188577 0.189994 0.189994 0.191414 0.191414 0.192837 0.192837 0.194263 0.194263 0.195693
0.195693 0.197127 0.197127 0.198563 0.198563 0.200003 0.200003 0.201447 0.201447 0.202894
0.202894 0.204344 0.204344 0.205798 0.205798 0.207214 0.207214 0.208555 0.208555 0.209867
0.209867 0.211193 0.211193 0.212533 0.212533 0.213888 0.213888 0.215258 0.215258 0.216643
0.216643 0.218042 0.218042 0.219457 0.219457 0.220887 0.220887 0.222333 0.222333 0.223795
0.223795 0.225272 0.225272 0.226766 0.226766 0.228275 0.228275 0.229801 0.229801 0.231344
0.231344 0.232904 0.232904 0.23448 0.23448 0.236073 0.236073 0.237684 0.237684 0.239313
0.239313 0.240959 0.240959 0.242623 0.242623 0.244305 0.244305 0.246005 0.246005 0.247724
0.247724 0.249461 0.249461 0.251218 0.251218 0.252993 0.252993 0.254788 0.254788 0.256602
0.256602 0.258436 0.258436 0.26029 0.26029 0.262164 0.262164 0.264059 0.264059 0.265974
0.265974 0.26791 0.26791 0.269867 0.269867 0.271845 0.271845 0.273844 0.273844 0.275866
0.275866 0.277909 0.277909 0.279975 0.279975 0.282063 0.282063 0.284174 0.284174 0.286307
0.286307 0.288464 0.288464 0.290644 0.290644 0.292849 0.292849 0.295076 0.295076 0.297329
0.297329 0.299605 0.299605 0.301907 0.301907 0.304233 0.304233 0.306585 0.306585 0.308962
0.308962 0.311365 0.311365 0.313794 0.313794 0.31625 0.31625 0.318732 0.318732 0.321242
0.321242 0.323778 0.323778 0.326342 0.326342 0.328935 0.328935 0.331555 0.331555 0.334203
0.334203 0.336881 0.336881 0.339587 0.339587 0.342323 0.342323 0.345089 0.345089 0.347885
0.347885 0.350711 0.350711 0.353568 0.353568 0.356456 0.356456 0.359375 0.359375 0.362326
0.362326 0.365309 0.365309 0.368325 0.368325 0.371373 0.371373 0.374455 0.374455 0.37757
0.37757 0.380719 0.380719 0.383902 0.383902 0.387119 0.387119 0.390372 0.390372 0.39366
0.39366 0.396984 0.396984 0.400343 0.400343 0.40374 0.40374 0.407173 0.407173 0.410644
0.410644 0.414152 0.414152 0.417698 0.417698 0.421283 0.421283 0.424907 0.424907 0.428571
0.428571 0.432274 0.432274 0.436017 0.436017 0.439801 0.439801 0.443627 0.443627 0.447493
0.447493 0.451402 0.451402 0.455354 0.455354 0.459348 0.459348 0.463386 0.463386 0.467467
0.467467 0.471593 0.471593 0.475764 0.475764 0.47998 0.47998 0.484242 0.484242 0.48855
0.48855 0.492905 0.492905 0.497308 0.497308 0.501758 0.501758 0.506257 0.506257 0.510804
0.510804 0.515401 0.515401 0.520048 0.520048 0.524746 0.524746 0.529494 0.529494 0.534294
0.534294 0.539147 0.539147 0.544052 0.544052 0.54901 0.54901 0.554022 0.554022 0.559089
0.559089 0.564211 0.564211 0.569388 0.569388 0.574622 0.574622 0.579913 0.579913 0.585261
0.585261 0.590667 0.590667 0.596132 0.596132 0.601657 0.601657 0.607241 0.607241 0.612886
0.612886 0.618593 0.618593 0.624361 0.624361 0.630193 0.630193 0.636087 0.636087 0.642046
0.642046 0.64807 0.64807 0.654158 0.654158 0.660314 0.660314 0.666536 0.666536 0.672825
0.672825 0.679183 0.679183 0.68561 0.68561 0.692107 0.692107 0.698675 0.698675 0.705314
0.705314 0.712025 0.712025 0.718809 0.718809 0.725667 0.725667 0.7326 0.7326 0.739607
0.739607 0.746691 0.746691 0.753852 0.753852 0.761091 0.761091 0.768408 0.768408 0.775805
0.775805 0.783283 0.783283 0.790841 0.790841 0.798482 0.798482 0.806206 0.806206 0.814014
0.814014 0.821906 0.821906 0.829885 0.829885 0.83795 0.83795 0.846103 0.846103 0.854344
0.854344 0.862675 0.862675 0.871097 0.871097 0.87961 0.87961 0.888215 0.888215 0.896914
0.896914 0.905708 0.905708 0.914597 0.914597 0.923583 0.923583 0.933175 0.933175 0.943878
0.943878 0.955113 0.955113 0.966349 0.966349 0.977584 0.977584 0.988819 0.988819 1.00005
1.00005 1.01129 1.01129 1.02253 1.02253 1.03376 1.03376 1.045 1.045 1.05623
1.05623 1.06747 1.06747 1.0787 1.0787 1.08994 1.08994 1.10117 1.10117 1.11241
1.11241 1.12364 1.12364 1.13488 1.13488 1.14611 1.14611 1.15735 1.15735 1.16858
1.16858 1.17982 1.17982 1.19106 1.19106 1.20229 1.20229 1.21353 1.21353 1.22476
1.22476 1.236 1.236 1.24723 1.24723 1.25847 1.25847 1.2697 1.2697 1.28094
1.28094 1.29217 1.29217 1.30341 1.30341 1.31464 1.31464 1.32588 1.32588 1.33711
1.33711 1.34835 1.34835 1.35959 1.35959 1.37082 1.37082 1.38206 1.38206 1.39329
1.39329 1.40453 1.40453 1.41576 1.41576 1.427 1.427 1.43823 1.43823 1.44947
1.44947 1.4607 1.4607 1.47194 1.47194 1.48317 1.48317 1.49441 1.49441 1.50564
1.50564 1.51688 1.51688 1.52812 1.52812 1.53935 1.53935 1.55059 1.55059 1.56182
1.56182 1.57306 1.57306 1.58429 1.58429 1.59553 1.59553 1.60676 1.60676 1.618
1.618 1.62923 1.62923 1.64047 1.64047 1.6517 1.6517 1.66294 1.66294 1.67418
1.67418 1.68541 1.68541 1.69665 1.69665 1.70788 1.70788 1.71912 1.71912 1.73035
1.73035 1.74159 1.74159 1.75282 1.75282 1.76406 1.76406 1.77529 1.77529 1.78653
1.78653 1.79776 1.79776 1.809 1.809 1.82023 1.82023 1.83147 1.83147 1.84271
1.84271 1.85394 1.85394 1.86518 1.86518 1.87641 1.87641 1.88765 1.88765 1.89888
1.89888 1.91012 1.91012 1.92135 1.92135 1.93259 1.93259 1.94382 1.94382 1.95506
1.95506 1.96629 1.96629 1.97753 1.97753 1.98876 1.98876 1.99438 1.99438 
yPlus 1 900 float
10.9912 9.86311 9.86311 10.9912 7.79712 7.79712 6.2983 6.2983 5.51376 5.51376 5.22218
5.22218 5.12378 5.12378 5.07048 5.07048 5.04924 5.04924 5.1204 5.1204 5.36678
5.36678 5.69457 5.69457 5.96253 5.96253 6.16328 6.16328 6.30256 6.30256 6.39229
6.39229 6.44266 6.44266 6.46322 6.46322 6.46334 6.46334 6.44864 6.44864 6.42484
6.42484 6.3971 6.3971 6.36799 6.36799 6.3386 6.3386 6.30945 6.30945 6.28082
6.28082 6.25289 6.25289 6.22581 6.22581 6.19961 6.19961 6.17432 6.17432 6.14997
6.14997 6.12648 6.12648 6.10362 6.10362 6.0813 6.0813 6.05961 6.05961 6.03866
6.03866 6.0185 6.0185 5.99914 5.99914 5.98052 5.98052 5.9626 5.9626 5.9453
5.9453 5.92855 5.92855 5.91228 5.91228 5.89644 5.89644 5.88106 5.88106 5.86613
5.86613 5.85165 5.85165 5.8376 5.8376 5.82396 5.82396 5.81073 5.81073 5.79784
5.79784 5.78526 5.78526 5.77295 5.77295 5.76092 5.76092 5.74917 5.74917 5.7377
5.7377 5.7265 5.7265 5.71557 5.71557 5.70488 5.70488 5.69438 5.69438 5.68407
5.68407 5.67394 5.67394 5.66401 5.66401 5.65428 5.65428 5.64474 5.64474 5.6354
5.6354 5.62626 5.62626 5.6173 5.6173 5.6085 5.6085 5.59985 5.59985 5.59134
5.59134 5.58297 5.58297 5.57473 5.57473 5.56665 5.56665 5.55871 5.55871 5.5509
5.5509 5.54323 5.54323 5.53567 5.53567 5.52823 5.52823 5.52089 5.52089 5.51366
5.51366 5.50653 5.50653 5.49951 5.49951 5.4926 5.4926 5.4858 5.4858 5.47909
5.47909 5.47247 5.47247 5.46594 5.46594 5.45949 5.45949 5.45313 5.45313 5.44684
5.44684 5.44065 5.44065 5.43454 5.43454 5.4285 5.4285 5.42254 5.42254 5.41666
5.41666 5.41084 5.41084 5.40509 5.40509 5.3994 5.3994 5.39378 5.39378 5.38823
5.38823 5.38275 5.38275 5.37734 5.37734 5.37198 5.37198 5.36667 5.36667 5.36143
5.36143 5.35624 5.35624 5.3511 5.3511 5.34602 5.34602 5.34099 5.34099 5.33602
5.33602 5.3311 5.3311 5.32623 5.32623 5.32141 5.32141 5.31663 5.31663 5.3119
5.3119 5.30721 5.30721 5.30257 5.30257 5.29798 5.29798 5.29343 5.29343 5.28892
5.28892 5.28446 5.28446 5.28003 5.28003 5.27564 5.27564 5.27129 5.27129 5.26698
5.26698 5.26271 5.26271 5.25848 5.25848 5.25429 5.25429 5.25013 5.25013 5.246
5.246 5.24191 5.24191 5.23785 5.23785 5.23383 5.23383 5.22984 5.22984 5.22588
5.22588 5.22196 5.22196 5.21806 5.21806 5.2142 5.2142 5.21037 5.21037 5.20656
5.20656 5.20278 5.20278 5.19904 5.19904 5.19532 5.19532 5.19163 5.19163 5.18796
5.18796 5.18433 5.18433 5.18072 5.18072 5.17713 5.17713 5.17357 5.17357 5.17004
5.17004 5.16653 5.16653 5.16305 5.16305 5.15959 5.15959 5.15616 5.15616 5.15275
5.15275 5.14936 5.14936 5.146 5.146 5.14265 5.14265 5.13933 5.13933 5.13604
5.13604 5.13276 5.13276 5.12951 5.12951 5.12628 5.12628 5.12306 5.12306 5.11987
5.11987 5.1167 5.1167 5.11355 5.11355 5.11041 5.11041 5.1073 5.1073 5.10421
5.10421 5.10114 5.10114 5.09808 5.09808 5.09513 5.09513 5.09236 5.09236 5.08966
5.08966 5.08696 5.08696 5.08425 5.08425 5.08153 5.08153 5.0788 5.0788 5.07606
5.07606 5.07332 5.07332 5.07056 5.07056 5.0678 5.0678 5.06503 5.06503 5.06225
5.06225 5.05946 5.05946 5.05666 5.05666 5.05386 5.05386 5.05104 5.05104 5.04822
5.04822 5.04539 5.04539 5.04255 5.04255 5.03971 5.03971 5.03685 5.03685 5.03399
5.03399 5.03112 5.03112 5.02825 5.02825 5.02536 5.02536 5.02247 5.02247 5.01957
5.01957 5.01666 5.01666 5.01375 5.01375 5.01082 5.01082 5.00789 5.00789 5.00496
5.00496 5.00201 5.00201 4.99906 4.99906 4.99611 4.99611 4.99314 4.99314 4.99017
4.99017 4.98719 4.98719 4.98421 4.98421 4.98121 4.98121 4.97822 4.97822 4.97521
4.97521 4.9722 4.9722 4.96917 4.96917 4.96613 4.96613 4.96308 4.96308 4.96003
4.96003 4.95697 4.95697 4.9539 4.9539 4.95083 4.95083 4.94776 4.94776 4.94467
4.94467 4.94158 4.94158 4.93849 4.93849 4.93539 4.93539 4.93228 4.93228 4.92917
4.92917 4.92606 4.92606 4.92294 4.92294 4.91981 4.91981 4.91668 4.91668 4.91354
4.91354 4.9104 4.9104 4.90725 4.90725 4.9041 4.9041 4.90094 4.90094 4.89778
4.89778 4.89461 4.89461 4.89144 4.89144 4.88826 4.88826 4.88508 4.88508 4.8819
4.8819 4.87871 4.87871 4.87552 4.87552 4.87232 4.87232 4.86912 4.86912 4.86591
4.86591 4.8627 4.8627 4.85949 4.85949 4.85627 4.85627 4.85305 4.85305 4.84983
4.84983 4.8466 4.8466 4.84337 4.84337 4.84013 4.84013 4.83688 4.83688 4.83363
4.83363 4.83038 4.83038 4.82713 4.82713 4.82387 4.82387 4.8206 4.8206 4.81734
4.81734 4.81407 4.81407 4.8108 4.8108 4.80753 4.80753 4.80425 4.80425 4.80097
4.80097 4.79769 4.79769 4.79441 4.79441 4.79112 4.79112 4.78783 4.78783 4.78454
4.78454 4.78125 4.78125 4.77795 4.77795 4.77466 4.77466 4.77136 4.77136 4.76805
4.76805 4.76475 4.76475 4.76145 4.76145 4.75814 4.75814 4.75483 4.75483 4.75152
4.75152 4.74821 4.74821 4.74489 4.74489 4.74158 4.74158 4.73826 4.73826 4.73494
4.73494 4.73162 4.73162 4.7283 4.7283 4.72498 4.72498 4.72166 4.72166 4.71833
4.71833 4.71501 4.71501 4.71168 4.71168 4.70836 4.70836 4.70503 4.70503 4.7017
4.7017 4.69837 4.69837 4.69504 4.69504 4.69171 4.69171 4.68838 4.68838 4.68505
4.68505 4.68172 4.68172 4.67838 4.67838 4.67505 4.67505 4.67172 4.67172 4.66839
4.66839 4.66505 4.66505 4.66172 4.66172 4.65839 4.65839 4.65505 4.65505 4.65172
4.65172 4.64839 4.64839 4.64505 4.64505 4.64172 4.64172 4.63839 4.63839 4.63506
4.63506 4.63172 4.63172 4.62839 4.62839 4.62506 4.62506 4.62173 4.62173 4.6184
4.6184 4.61507 4.61507 4.61174 4.61174 4.60842 4.60842 4.60509 4.60509 4.60176
4.60176 4.59844 4.59844 4.59511 4.59511 4.59179 4.59179 4.58847 4.58847 4.58514
4.58514 4.58182 4.58182 4.57851 4.57851 4.57519 4.57519 4.57187 4.57187 4.56855
4.56855 4.56524 4.56524 4.56193 4.56193 4.55862 4.55862 4.55531 4.55531 4.552
4.552 4.54869 4.54869 4.54539 4.54539 4.54208 4.54208 4.53878 4.53878 4.53548
4.53548 4.53218 4.53218 4.52889 4.52889 4.52559 4.52559 4.52211 4.52211 4.51828
4.51828 4.51432 4.51432 4.51041 4.51041 4.50655 4.50655 4.50274 4.50274 4.49898
4.49898 4.49527 4.49527 4.49161 4.49161 4.48799 4.48799 4.48442 4.48442 4.48089
4.48089 4.47741 4.47741 4.47397 4.47397 4.47057 4.47057 4.46721 4.46721 4.46389
4.46389 4.46061 4.46061 4.45737 4.45737 4.45417 4.45417 4.451 4.451 4.44786
4.44786 4.44477 4.44477 4.4417 4.4417 4.43867 4.43867 4.43568 4.43568 4.43271
4.43271 4.42978 4.42978 4.42687 4.42687 4.424 4.424 4.42116 4.42116 4.41835
4.41835 4.41556 4.41556 4.4128 4.4128 4.41008 4.41008 4.40737 4.40737 4.4047
4.4047 4.40205 4.40205 4.39943 4.39943 4.39683 4.39683 4.39425 4.39425 4.3917
4.3917 4.38918 4.38918 4.38668 4.38668 4.3842 4.3842 4.38174 4.38174 4.37931
4.37931 4.37689 4.37689 4.3745 4.3745 4.37213 4.37213 4.36978 4.36978 4.36745
4.36745 4.36515 4.36515 4.36286 4.36286 4.36059 4.36059 4.35834 4.35834 4.35611
4.35611 4.35389 4.35389 4.3517 4.3517 4.34952 4.34952 4.34736 4.34736 4.34522
4.34522 4.3431 4.3431 4.34099 4.34099 4.3389 4.3389 4.33683 4.33683 4.33477
4.33477 4.33272 4.33272 4.3307 4.3307 4.32869 4.32869 4.32669 4.32669 4.32471
4.32471 4.32274 4.32274 4.32079 4.32079 4.31885 4.31885 4.31692 4.31692 4.31501
4.31501 4.31311 4.31311 4.31123 4.31123 4.30936 4.30936 4.3075 4.3075 4.30565
4.30565 4.30382 4.30382 4.30199 4.30199 4.30018 4.30018 4.29838 4.29838 4.29658
4.29658 4.29481 4.29481 4.29292 4.29292 4.2911 4.2911 4.28905 4.28905 4.28744
4.28744 4.2851 4.2851 4.28391 4.28391 4.28187 4.28187 4.27908 4.27908 
wallShearStress 3 900 float
-38.2913 -0.652221 0 -31.2357 -0.597923 0 -31.2357 -0.597923 0 -38.2913 -0.652221
0 -19.5444 -0.409176 0 -19.5444 -0.409176 0 -12.6701 -0.167975 0
-12.6701 -0.167975 0 -9.65062 -0.0168996 0 -9.65062 -0.0168996 0 -8.64513
0.0295905 0 -8.64513 0.0295905 0 -8.32167 0.0236363 0 -8.32167 0.0236363
0 -8.14922 0.0131189 0 -8.14922 0.0131189 0 -8.08063 0.0176416 0
-8.08063 0.0176416 0 -8.31136 0.0414649 0 -8.31136 0.0414649 0 -9.1388
0.0680515 0 -9.1388 0.0680515 0 -10.2856 0.0718202 0 -10.2856 0.0718202
0 -11.273 0.0573115 0 -11.273 0.0573115 0 -12.0424 0.041565 0
-12.0424 0.041565 0 -12.5915 0.0289051 0 -12.5915 0.0289051 0 -12.9519
0.0189026 0 -12.9519 0.0189026 0 -13.1565 0.0108418 0 -13.1565 0.0108418
0 -13.2405 0.00479274 0 -13.2405 0.00479274 0 -13.241 0.000511068 0
-13.241 0.000511068 0 -13.1808 -0.0024066 0 -13.1808 -0.0024066 0 -13.0837
-0.00401062 0 -13.0837 -0.00401062 0 -12.9709 -0.00465678 0 -12.9709 -0.00465678
0 -12.8532 -0.00485145 0 -12.8532 -0.00485145 0 -12.7348 -0.00485635 0
-12.7348 -0.00485635 0 -12.618 -0.0047806 0 -12.618 -0.0047806 0 -12.5037
-0.00466547 0 -12.5037 -0.00466547 0 -12.3927 -0.00451566 0 -12.3927 -0.00451566
0 -12.2856 -0.00434757 0 -12.2856 -0.00434757 0 -12.1824 -0.00417997 0
-12.1824 -0.00417997 0 -12.0832 -0.00400693 0 -12.0832 -0.00400693 0 -11.9881
-0.00383587 0 -11.9881 -0.00383587 0 -11.8967 -0.00369764 0 -11.8967 -0.00369764
0 -11.8081 -0.00358333 0 -11.8081 -0.00358333 0 -11.7219 -0.00345759 0
-11.7219 -0.00345759 0 -11.6384 -0.00332013 0 -11.6384 -0.00332013 0 -11.5581
-0.00318038 0 -11.5581 -0.00318038 0 -11.4811 -0.00303857 0 -11.4811 -0.00303857
0 -11.4073 -0.00290186 0 -11.4073 -0.00290186 0 -11.3366 -0.00277565 0
-11.3366 -0.00277565 0 -11.2687 -0.0026608 0 -11.2687 -0.0026608 0 -11.2035
-0.00255967 0 -11.2035 -0.00255967 0 -11.1404 -0.00247358 0 -11.1404 -0.00247358
0 -11.0793 -0.00239827 0 -11.0793 -0.00239827 0 -11.0201 -0.00232471 0
-11.0201 -0.00232471 0 -10.9626 -0.00224764 0 -10.9626 -0.00224764 0 -10.9071
-0.00217109 0 -10.9071 -0.00217109 0 -10.8533 -0.00209888 0 -10.8533 -0.00209888
0 -10.8012 -0.00202843 0 -10.8012 -0.00202843 0 -10.7508 -0.00195883 0
-10.7508 -0.00195883 0 -10.702 -0.00189616 0 -10.702 -0.00189616 0 -10.6546
-0.00184373 0 -10.6546 -0.00184373 0 -10.6084 -0.0017969 0 -10.6084 -0.0017969
0 -10.5633 -0.001751 0 -10.5633 -0.001751 0 -10.5193 -0.00170539 0
-10.5193 -0.00170539 0 -10.4765 -0.0016602 0 -10.4765 -0.0016602 0 -10.4347
-0.00161463 0 -10.4347 -0.00161463 0 -10.394 -0.00156899 0 -10.394 -0.00156899
0 -10.3544 -0.00152754 0 -10.3544 -0.00152754 0 -10.3157 -0.00149393 0
-10.3157 -0.00149393 0 -10.2777 -0.00146444 0 -10.2777 -0.00146444 0 -10.2405
-0.00143408 0 -10.2405 -0.00143408 0 -10.2041 -0.00140261 0 -10.2041 -0.00140261
0 -10.1684 -0.00137106 0 -10.1684 -0.00137106 0 -10.1335 -0.00133871 0
-10.1335 -0.00133871 0 -10.0993 -0.00130525 0 -10.0993 -0.00130525 0 -10.0659
-0.00127254 0 -10.0659 -0.00127254 0 -10.0333 -0.00124243 0 -10.0333 -0.00124243
0 -10.0014 -0.00121517 0 -10.0014 -0.00121517 0 -9.97005 -0.00118993 0
-9.97005 -0.00118993 0 -9.93931 -0.00116634 0 -9.93931 -0.00116634 0 -9.90913
-0.001144 0 -9.90913 -0.001144 0 -9.87947 -0.00112158 0 -9.87947 -0.00112158
0 -9.85036 -0.00109826 0 -9.85036 -0.00109826 0 -9.8218 -0.00107454 0
-9.8218 -0.00107454 0 -9.7938 -0.00105158 0 -9.7938 -0.00105158 0 -9.76632
-0.00103029 0 -9.76632 -0.00103029 0 -9.73933 -0.00101054 0 -9.73933 -0.00101054
0 -9.7128 -0.000991818 0 -9.7128 -0.000991818 0 -9.68669 -0.000974315 0
-9.68669 -0.000974315 0 -9.661 -0.000957725 0 -9.661 -0.000957725 0 -9.63569
-0.000940877 0 -9.63569 -0.000940877 0 -9.61079 -0.000923157 0 -9.61079 -0.000923157
0 -9.58632 -0.000905338 0 -9.58632 -0.000905338 0 -9.56225 -0.000888399 0
-9.56225 -0.000888399 0 -9.53858 -0.000872702 0 -9.53858 -0.000872702 0 -9.51526
-0.00085792 0 -9.51526 -0.00085792 0 -9.49229 -0.000843657 0 -9.49229 -0.000843657
0 -9.46964 -0.000830136 0 -9.46964 -0.000830136 0 -9.44731 -0.000817192 0
-9.44731 -0.000817192 0 -9.42529 -0.000804106 0 -9.42529 -0.000804106 0 -9.40358
-0.000790336 0 -9.40358 -0.000790336 0 -9.3822 -0.000776471 0 -9.3822 -0.000776471
0 -9.36113 -0.000763511 0 -9.36113 -0.000763511 0 -9.34037 -0.000751613 0
-9.34037 -0.000751613 0 -9.31987 -0.000740225 0 -9.31987 -0.000740225 0 -9.29965
-0.000729013 0 -9.29965 -0.000729013 0 -9.27968 -0.00071828 0 -9.27968 -0.00071828
0 -9.25996 -0.000708004 0 -9.25996 -0.000708004 0 -9.24049 -0.000697578 0
-9.24049 -0.000697578 0 -9.22126 -0.000686569 0 -9.22126 -0.000686569 0 -9.2023
-0.000675577 0 -9.2023 -0.000675577 0 -9.18359 -0.000665399 0 -9.18359 -0.000665399
0 -9.16512 -0.000656109 0 -9.16512 -0.000656109 0 -9.14685 -0.000647153 0
-9.14685 -0.000647153 0 -9.1288 -0.000638043 0 -9.1288 -0.000638043 0 -9.11096
-0.000629185 0 -9.11096 -0.000629185 0 -9.09333 -0.000620751 0 -9.09333 -0.000620751
0 -9.0759 -0.000612312 0 -9.0759 -0.000612312 0 -9.05867 -0.000603564 0
-9.05867 -0.000603564 0 -9.04164 -0.000594728 0 -9.04164 -0.000594728 0 -9.02483
-0.00058645 0 -9.02483 -0.00058645 0 -9.00819 -0.000578891 0 -9.00819 -0.000578891
0 -8.99174 -0.000571665 0 -8.99174 -0.000571665 0 -8.97545 -0.000564347 0
-8.97545 -0.000564347 0 -8.95934 -0.000557 0 -8.95934 -0.000557 0 -8.94341
-0.000549853 0 -8.94341 -0.000549853 0 -8.92764 -0.000542817 0 -8.92764 -0.000542817
0 -8.91203 -0.000535749 0 -8.91203 -0.000535749 0 -8.8966 -0.000528625 0
-8.8966 -0.000528625 0 -8.88133 -0.000521791 0 -8.88133 -0.000521791 0 -8.86622
-0.000515482 0 -8.86622 -0.000515482 0 -8.85125 -0.000509529 0 -8.85125 -0.000509529
0 -8.83642 -0.000503597 0 -8.83642 -0.000503597 0 -8.82174 -0.000497418 0
-8.82174 -0.000497418 0 -8.8072 -0.000491222 0 -8.8072 -0.000491222 0 -8.79281
-0.000485237 0 -8.79281 -0.000485237 0 -8.77856 -0.000479478 0 -8.77856 -0.000479478
0 -8.76444 -0.000473803 0 -8.76444 -0.000473803 0 -8.75046 -0.000468077 0
-8.75046 -0.000468077 0 -8.73662 -0.000462615 0 -8.73662 -0.000462615 0 -8.7229
-0.000457519 0 -8.7229 -0.000457519 0 -8.7093 -0.000452597 0 -8.7093 -0.000452597
0 -8.69582 -0.000447556 0 -8.69582 -0.000447556 0 -8.68245 -0.000442199 0
-8.68245 -0.000442199 0 -8.66922 -0.000436957 0 -8.66922 -0.000436957 0 -8.65611
-0.000432056 0 -8.65611 -0.000432056 0 -8.64311 -0.000427379 0 -8.64311 -0.000427379
0 -8.63023 -0.000422769 0 -8.63023 -0.000422769 0 -8.61745 -0.000418088 0
-8.61745 -0.000418088 0 -8.60479 -0.00041362 0 -8.60479 -0.00041362 0 -8.59223
-0.000409415 0 -8.59223 -0.000409415 0 -8.57976 -0.000405218 0 -8.57976 -0.000405218
0 -8.5674 -0.000400894 0 -8.5674 -0.000400894 0 -8.55515 -0.00039641 0
-8.55515 -0.00039641 0 -8.543 -0.000392071 0 -8.543 -0.000392071 0 -8.53095
-0.000388024 0 -8.53095 -0.000388024 0 -8.519 -0.000384159 0 -8.519 -0.000384159
0 -8.50714 -0.000380328 0 -8.50714 -0.000380328 0 -8.49537 -0.000376374 0
-8.49537 -0.000376374 0 -8.48369 -0.000372454 0 -8.48369 -0.000372454 0 -8.47211
-0.000368667 0 -8.47211 -0.000368667 0 -8.46062 -0.000364979 0 -8.46062 -0.000364979
0 -8.44921 -0.000361307 0 -8.44921 -0.000361307 0 -8.4379 -0.000357561 0
-8.4379 -0.000357561 0 -8.42667 -0.000353932 0 -8.42667 -0.000353932 0 -8.41553
-0.000350528 0 -8.41553 -0.000350528 0 -8.40447 -0.00034726 0 -8.40447 -0.00034726
0 -8.39349 -0.000343977 0 -8.39349 -0.000343977 0 -8.38259 -0.000340534 0
-8.38259 -0.000340534 0 -8.37177 -0.000337096 0 -8.37177 -0.000337096 0 -8.36103
-0.000333823 0 -8.36103 -0.000333823 0 -8.35037 -0.00033067 0 -8.35037 -0.00033067
0 -8.33979 -0.000327581 0 -8.33979 -0.000327581 0 -8.32928 -0.000324475 0
-8.32928 -0.000324475 0 -8.31884 -0.000321391 0 -8.31884 -0.000321391 0 -8.30848
-0.000318431 0 -8.30848 -0.000318431 0 -8.29819 -0.000315541 0 -8.29819 -0.000315541
0 -8.28797 -0.000312662 0 -8.28797 -0.000312662 0 -8.27782 -0.000309744 0
-8.27782 -0.000309744 0 -8.26774 -0.000306787 0 -8.26774 -0.000306787 0 -8.25773
-0.000303925 0 -8.25773 -0.000303925 0 -8.24778 -0.000301275 0 -8.24778 -0.000301275
0 -8.23791 -0.000298424 0 -8.23791 -0.000298424 0 -8.22837 -0.000295254 0
-8.22837 -0.000295254 0 -8.21942 -0.000292829 0 -8.21942 -0.000292829 0 -8.21072
-0.000290579 0 -8.21072 -0.000290579 0 -8.202 -0.000287994 0 -8.202 -0.000287994
0 -8.19326 -0.000285721 0 -8.19326 -0.000285721 0 -8.1845 -0.000283533 0
-8.1845 -0.000283533 0 -8.17571 -0.0002813 0 -8.17571 -0.0002813 0 -8.1669
-0.000279003 0 -8.1669 -0.000279003 0 -8.15807 -0.000276768 0 -8.15807 -0.000276768
0 -8.14922 -0.000274637 0 -8.14922 -0.000274637 0 -8.14034 -0.000272521 0
-8.14034 -0.000272521 0 -8.13143 -0.000270356 0 -8.13143 -0.000270356 0 -8.12251
-0.00026812 0 -8.12251 -0.00026812 0 -8.11356 -0.000265865 0 -8.11356 -0.000265865
0 -8.10459 -0.000263673 0 -8.10459 -0.000263673 0 -8.09561 -0.000261544 0
-8.09561 -0.000261544 0 -8.0866 -0.000259448 0 -8.0866 -0.000259448 0 -8.07756
-0.000257335 0 -8.07756 -0.000257335 0 -8.06851 -0.000255161 0 -8.06851 -0.000255161
0 -8.05943 -0.000253009 0 -8.05943 -0.000253009 0 -8.05034 -0.000250916 0
-8.05034 -0.000250916 0 -8.04123 -0.000248849 0 -8.04123 -0.000248849 0 -8.03209
-0.000246748 0 -8.03209 -0.000246748 0 -8.02294 -0.000244574 0 -8.02294 -0.000244574
0 -8.01376 -0.000242461 0 -8.01376 -0.000242461 0 -8.00457 -0.000240447 0
-8.00457 -0.000240447 0 -7.99536 -0.000238456 0 -7.99536 -0.000238456 0 -7.98613
-0.000236407 0 -7.98613 -0.000236407 0 -7.97688 -0.000234288 0 -7.97688 -0.000234288
0 -7.96761 -0.00023222 0 -7.96761 -0.00023222 0 -7.95833 -0.000230219 0
-7.95833 -0.000230219 0 -7.94903 -0.000228235 0 -7.94903 -0.000228235 0 -7.93971
-0.000226234 0 -7.93971 -0.000226234 0 -7.93037 -0.000224204 0 -7.93037 -0.000224204
0 -7.92102 -0.000222212 0 -7.92102 -0.000222212 0 -7.91165 -0.00022027 0
-7.91165 -0.00022027 0 -7.90226 -0.000218324 0 -7.90226 -0.000218324 0 -7.89285
-0.000216329 0 -7.89285 -0.000216329 0 -7.88344 -0.000214343 0 -7.88344 -0.000214343
0 -7.874 -0.000212428 0 -7.874 -0.000212428 0 -7.86455 -0.000210561 0
-7.86455 -0.000210561 0 -7.85509 -0.000208649 0 -7.85509 -0.000208649 0 -7.84561
-0.000206832 0 -7.84561 -0.000206832 0 -7.8361 -0.000205421 0 -7.8361 -0.000205421
0 -7.82656 -0.000204153 0 -7.82656 -0.000204153 0 -7.81699 -0.000202586 0
-7.81699 -0.000202586 0 -7.8074 -0.000200746 0 -7.8074 -0.000200746 0 -7.7978
-0.000198845 0 -7.7978 -0.000198845 0 -7.78818 -0.000196994 0 -7.78818 -0.000196994
0 -7.77855 -0.000195174 0 -7.77855 -0.000195174 0 -7.76891 -0.00019333 0
-7.76891 -0.00019333 0 -7.75925 -0.000191476 0 -7.75925 -0.000191476 0 -7.74959
-0.00018968 0 -7.74959 -0.00018968 0 -7.73991 -0.000187922 0 -7.73991 -0.000187922
0 -7.73022 -0.000186133 0 -7.73022 -0.000186133 0 -7.72052 -0.000184325 0
-7.72052 -0.000184325 0 -7.71081 -0.000182562 0 -7.71081 -0.000182562 0 -7.70108
-0.000180837 0 -7.70108 -0.000180837 0 -7.69135 -0.000179099 0 -7.69135 -0.000179099
0 -7.6816 -0.000177344 0 -7.6816 -0.000177344 0 -7.67185 -0.000175624 0
-7.67185 -0.000175624 0 -7.66208 -0.000173942 0 -7.66208 -0.000173942 0 -7.65231
-0.00017224 0 -7.65231 -0.00017224 0 -7.64252 -0.000170525 0 -7.64252 -0.000170525
0 -7.63273 -0.000168861 0 -7.63273 -0.000168861 0 -7.62292 -0.000167226 0
-7.62292 -0.000167226 0 -7.61311 -0.000165563 0 -7.61311 -0.000165563 0 -7.60329
-0.000163902 0 -7.60329 -0.000163902 0 -7.59347 -0.000162286 0 -7.59347 -0.000162286
0 -7.58363 -0.000160685 0 -7.58363 -0.000160685 0 -7.57378 -0.000159063 0
-7.57378 -0.000159063 0 -7.56393 -0.000157455 0 -7.56393 -0.000157455 0 -7.55408
-0.000155893 0 -7.55408 -0.000155893 0 -7.54421 -0.000154331 0 -7.54421 -0.000154331
0 -7.53434 -0.000152744 0 -7.53434 -0.000152744 0 -7.52446 -0.000151196 0
-7.52446 -0.000151196 0 -7.51457 -0.000149678 0 -7.51457 -0.000149678 0 -7.50468
-0.000148144 0 -7.50468 -0.000148144 0 -7.49479 -0.000146613 0 -7.49479 -0.000146613
0 -7.48489 -0.000145123 0 -7.48489 -0.000145123 0 -7.47498 -0.000143646 0
-7.47498 -0.000143646 0 -7.46506 -0.000142145 0 -7.46506 -0.000142145 0 -7.45515
-0.000140671 0 -7.45515 -0.000140671 0 -7.44523 -0.00013925 0 -7.44523 -0.00013925
0 -7.4353 -0.000137909 0 -7.4353 -0.000137909 0 -7.42536 -0.000136637 0
-7.42536 -0.000136637 0 -7.4154 -0.000135324 0 -7.4154 -0.000135324 0 -7.40544
-0.000133931 0 -7.40544 -0.000133931 0 -7.39548 -0.000132505 0 -7.39548 -0.000132505
0 -7.38551 -0.000131115 0 -7.38551 -0.000131115 0 -7.37554 -0.000129748 0
-7.37554 -0.000129748 0 -7.36557 -0.000128361 0 -7.36557 -0.000128361 0 -7.3556
-0.000126994 0 -7.3556 -0.000126994 0 -7.34562 -0.000125657 0 -7.34562 -0.000125657
0 -7.33565 -0.000124316 0 -7.33565 -0.000124316 0 -7.32567 -0.000122978 0
-7.32567 -0.000122978 0 -7.31569 -0.000121669 0 -7.31569 -0.000121669 0 -7.30571
-0.000120365 0 -7.30571 -0.000120365 0 -7.29572 -0.000119057 0 -7.29572 -0.000119057
0 -7.28574 -0.000117783 0 -7.28574 -0.000117783 0 -7.27575 -0.000116516 0
-7.27575 -0.000116516 0 -7.26577 -0.000115237 0 -7.26577 -0.000115237 0 -7.25578
-0.000113992 0 -7.25578 -0.000113992 0 -7.2458 -0.000112761 0 -7.2458 -0.000112761
0 -7.23581 -0.000111514 0 -7.23581 -0.000111514 0 -7.22583 -0.000110299 0
-7.22583 -0.000110299 0 -7.21585 -0.000109101 0 -7.21585 -0.000109101 0 -7.20586
-0.000107893 0 -7.20586 -0.000107893 0 -7.19588 -0.000106708 0 -7.19588 -0.000106708
0 -7.1859 -0.000105538 0 -7.1859 -0.000105538 0 -7.17592 -0.000104361 0
-7.17592 -0.000104361 0 -7.16595 -0.00010321 0 -7.16595 -0.00010321 0 -7.15597
-0.000102073 0 -7.15597 -0.000102073 0 -7.146 -0.000100927 0 -7.146 -0.000100927
0 -7.13603 -9.98061e-05 0 -7.13603 -9.98061e-05 0 -7.12606 -9.86994e-05 0
-7.12606 -9.86994e-05 0 -7.11609 -9.75846e-05 0 -7.11609 -9.75846e-05 0 -7.10613
-9.64946e-05 0 -7.10613 -9.64946e-05 0 -7.09617 -9.54178e-05 0 -7.09617 -9.54178e-05
0 -7.08621 -9.43361e-05 0 -7.08621 -9.43361e-05 0 -7.07626 -9.3276e-05 0
-7.07626 -9.3276e-05 0 -7.06631 -9.22245e-05 0 -7.06631 -9.22245e-05 0 -7.05636
-9.11755e-05 0 -7.05636 -9.11755e-05 0 -7.04642 -9.01474e-05 0 -7.04642 -9.01474e-05
0 -7.03648 -8.91234e-05 0 -7.03648 -8.91234e-05 0 -7.02655 -8.81053e-05 0
-7.02655 -8.81053e-05 0 -7.01662 -8.71056e-05 0 -7.01662 -8.71056e-05 0 -7.0067
-8.6109e-05 0 -7.0067 -8.6109e-05 0 -6.99678 -8.51241e-05 0 -6.99678 -8.51241e-05
0 -6.98686 -8.41528e-05 0 -6.98686 -8.41528e-05 0 -6.97696 -8.31814e-05 0
-6.97696 -8.31814e-05 0 -6.96705 -8.22264e-05 0 -6.96705 -8.22264e-05 0 -6.95715
-8.12818e-05 0 -6.95715 -8.12818e-05 0 -6.94726 -8.03402e-05 0 -6.94726 -8.03402e-05
0 -6.93738 -7.94152e-05 0 -6.93738 -7.94152e-05 0 -6.9275 -7.84946e-05 0
-6.9275 -7.84946e-05 0 -6.91762 -7.75826e-05 0 -6.91762 -7.75826e-05 0 -6.90776
-7.66854e-05 0 -6.90776 -7.66854e-05 0 -6.89789 -7.579e-05 0 -6.89789 -7.579e-05
0 -6.88804 -7.49077e-05 0 -6.88804 -7.49077e-05 0 -6.87819 -7.40357e-05 0
-6.87819 -7.40357e-05 0 -6.86835 -7.31673e-05 0 -6.86835 -7.31673e-05 0 -6.85852
-7.23126e-05 0 -6.85852 -7.23126e-05 0 -6.8487 -7.14635e-05 0 -6.8487 -7.14635e-05
0 -6.83888 -7.06251e-05 0 -6.83888 -7.06251e-05 0 -6.82907 -6.97963e-05 0
-6.82907 -6.97963e-05 0 -6.81927 -6.89697e-05 0 -6.81927 -6.89697e-05 0 -6.80947
-6.81585e-05 0 -6.80947 -6.81585e-05 0 -6.79969 -6.7354e-05 0 -6.79969 -6.7354e-05
0 -6.78991 -6.65563e-05 0 -6.78991 -6.65563e-05 0 -6.78014 -6.57695e-05 0
-6.78014 -6.57695e-05 0 -6.77038 -6.49858e-05 0 -6.77038 -6.49858e-05 0 -6.76062
-6.42141e-05 0 -6.76062 -6.42141e-05 0 -6.75088 -6.34498e-05 0 -6.75088 -6.34498e-05
0 -6.74115 -6.26935e-05 0 -6.74115 -6.26935e-05 0 -6.73142 -6.19462e-05 0
-6.73142 -6.19462e-05 0 -6.7217 -6.12034e-05 0 -6.7217 -6.12034e-05 0 -6.712
-6.04729e-05 0 -6.712 -6.04729e-05 0 -6.7023 -5.97474e-05 0 -6.7023 -5.97474e-05
0 -6.69261 -5.90299e-05 0 -6.69261 -5.90299e-05 0 -6.68294 -5.8322e-05 0
-6.68294 -5.8322e-05 0 -6.67327 -5.76192e-05 0 -6.67327 -5.76192e-05 0 -6.66361
-5.69256e-05 0 -6.66361 -5.69256e-05 0 -6.65396 -5.62375e-05 0 -6.65396 -5.62375e-05
0 -6.64433 -5.55586e-05 0 -6.64433 -5.55586e-05 0 -6.6347 -5.48865e-05 0
-6.6347 -5.48865e-05 0 -6.62508 -5.42216e-05 0 -6.62508 -5.42216e-05 0 -6.61548
-5.35645e-05 0 -6.61548 -5.35645e-05 0 -6.60588 -5.29124e-05 0 -6.60588 -5.29124e-05
0 -6.5963 -5.22697e-05 0 -6.5963 -5.22697e-05 0 -6.58673 -5.16328e-05 0
-6.58673 -5.16328e-05 0 -6.57717 -5.1003e-05 0 -6.57717 -5.1003e-05 0 -6.56762
-5.03808e-05 0 -6.56762 -5.03808e-05 0 -6.55808 -4.97651e-05 0 -6.55808 -4.97651e-05
0 -6.54855 -4.91566e-05 0 -6.54855 -4.91566e-05 0 -6.53903 -4.85534e-05 0
-6.53903 -4.85534e-05 0 -6.52953 -4.79578e-05 0 -6.52953 -4.79578e-05 0 -6.52004
-4.73669e-05 0 -6.52004 -4.73669e-05 0 -6.51056 -4.67831e-05 0 -6.51056 -4.67831e-05
0 -6.50109 -4.61971e-05 0 -6.50109 -4.61971e-05 0 -6.49164 -4.56546e-05 0
-6.49164 -4.56546e-05 0 -6.48166 -4.50813e-05 0 -6.48166 -4.50813e-05 0 -6.47069
-4.4402e-05 0 -6.47069 -4.4402e-05 0 -6.45934 -4.3749e-05 0 -6.45934 -4.3749e-05
0 -6.44816 -4.31213e-05 0 -6.44816 -4.31213e-05 0 -6.43712 -4.24899e-05 0
-6.43712 -4.24899e-05 0 -6.42625 -4.18801e-05 0 -6.42625 -4.18801e-05 0 -6.41552
-4.12831e-05 0 -6.41552 -4.12831e-05 0 -6.40494 -4.07017e-05 0 -6.40494 -4.07017e-05
0 -6.39451 -4.01337e-05 0 -6.39451 -4.01337e-05 0 -6.38422 -3.958e-05 0
-6.38422 -3.958e-05 0 -6.37406 -3.90393e-05 0 -6.37406 -3.90393e-05 0 -6.36404
-3.85116e-05 0 -6.36404 -3.85116e-05 0 -6.35415 -3.79965e-05 0 -6.35415 -3.79965e-05
0 -6.34439 -3.74941e-05 0 -6.34439 -3.74941e-05 0 -6.33475 -3.70028e-05 0
-6.33475 -3.70028e-05 0 -6.32524 -3.6522e-05 0 -6.32524 -3.6522e-05 0 -6.31584
-3.60519e-05 0 -6.31584 -3.60519e-05 0 -6.30656 -3.5593e-05 0 -6.30656 -3.5593e-05
0 -6.2974 -3.51442e-05 0 -6.2974 -3.51442e-05 0 -6.28834 -3.47055e-05 0
-6.28834 -3.47055e-05 0 -6.2794 -3.4276e-05 0 -6.2794 -3.4276e-05 0 -6.27056
-3.38559e-05 0 -6.27056 -3.38559e-05 0 -6.26183 -3.34446e-05 0 -6.26183 -3.34446e-05
0 -6.2532 -3.30418e-05 0 -6.2532 -3.30418e-05 0 -6.24467 -3.26483e-05 0
-6.24467 -3.26483e-05 0 -6.23624 -3.22627e-05 0 -6.23624 -3.22627e-05 0 -6.22791
-3.18857e-05 0 -6.22791 -3.18857e-05 0 -6.21967 -3.15167e-05 0 -6.21967 -3.15167e-05
0 -6.21152 -3.11553e-05 0 -6.21152 -3.11553e-05 0 -6.20346 -3.08013e-05 0
-6.20346 -3.08013e-05 0 -6.19549 -3.04545e-05 0 -6.19549 -3.04545e-05 0 -6.18761
-3.01145e-05 0 -6.18761 -3.01145e-05 0 -6.17981 -2.97802e-05 0 -6.17981 -2.97802e-05
0 -6.1721 -2.94531e-05 0 -6.1721 -2.94531e-05 0 -6.16447 -2.9132e-05 0
-6.16447 -2.9132e-05 0 -6.15692 -2.88176e-05 0 -6.15692 -2.88176e-05 0 -6.14944
-2.85091e-05 0 -6.14944 -2.85091e-05 0 -6.14205 -2.8206e-05 0 -6.14205 -2.8206e-05
0 -6.13473 -2.79095e-05 0 -6.13473 -2.79095e-05 0 -6.12748 -2.76179e-05 0
-6.12748 -2.76179e-05 0 -6.12031 -2.7332e-05 0 -6.12031 -2.7332e-05 0 -6.11321
-2.70519e-05 0 -6.11321 -2.70519e-05 0 -6.10618 -2.67761e-05 0 -6.10618 -2.67761e-05
0 -6.09922 -2.65061e-05 0 -6.09922 -2.65061e-05 0 -6.09233 -2.62402e-05 0
-6.09233 -2.62402e-05 0 -6.08551 -2.59796e-05 0 -6.08551 -2.59796e-05 0 -6.07875
-2.57238e-05 0 -6.07875 -2.57238e-05 0 -6.07205 -2.54719e-05 0 -6.07205 -2.54719e-05
0 -6.06542 -2.52252e-05 0 -6.06542 -2.52252e-05 0 -6.05885 -2.49822e-05 0
-6.05885 -2.49822e-05 0 -6.05234 -2.47435e-05 0 -6.05234 -2.47435e-05 0 -6.04589
-2.45098e-05 0 -6.04589 -2.45098e-05 0 -6.0395 -2.42783e-05 0 -6.0395 -2.42783e-05
0 -6.03317 -2.4052e-05 0 -6.03317 -2.4052e-05 0 -6.0269 -2.38299e-05 0
-6.0269 -2.38299e-05 0 -6.02068 -2.36101e-05 0 -6.02068 -2.36101e-05 0 -6.01451
-2.33953e-05 0 -6.01451 -2.33953e-05 0 -6.00841 -2.31839e-05 0 -6.00841 -2.31839e-05
0 -6.00235 -2.29753e-05 0 -6.00235 -2.29753e-05 0 -5.99635 -2.27709e-05 0
-5.99635 -2.27709e-05 0 -5.9904 -2.25693e-05 0 -5.9904 -2.25693e-05 0 -5.9845
-2.23711e-05 0 -5.9845 -2.23711e-05 0 -5.97865 -2.21768e-05 0 -5.97865 -2.21768e-05
0 -5.97285 -2.19844e-05 0 -5.97285 -2.19844e-05 0 -5.96709 -2.17962e-05 0
-5.96709 -2.17962e-05 0 -5.96139 -2.16109e-05 0 -5.96139 -2.16109e-05 0 -5.95573
-2.14278e-05 0 -5.95573 -2.14278e-05 0 -5.95012 -2.12482e-05 0 -5.95012 -2.12482e-05
0 -5.94455 -2.10726e-05 0 -5.94455 -2.10726e-05 0 -5.93903 -2.08975e-05 0
-5.93903 -2.08975e-05 0 -5.93355 -2.07273e-05 0 -5.93355 -2.07273e-05 0 -5.92812
-2.05593e-05 0 -5.92812 -2.05593e-05 0 -5.92273 -2.03939e-05 0 -5.92273 -2.03939e-05
0 -5.91738 -2.02309e-05 0 -5.91738 -2.02309e-05 0 -5.91207 -2.0073e-05 0
-5.91207 -2.0073e-05 0 -5.9068 -1.99145e-05 0 -5.9068 -1.99145e-05 0 -5.90157
-1.97618e-05 0 -5.90157 -1.97618e-05 0 -5.89638 -1.96098e-05 0 -5.89638 -1.96098e-05
0 -5.89123 -1.94639e-05 0 -5.89123 -1.94639e-05 0 -5.88611 -1.93162e-05 0
-5.88611 -1.93162e-05 0 -5.88104 -1.91801e-05 0 -5.88104 -1.91801e-05 0 -5.87599
-1.90354e-05 0 -5.87599 -1.90354e-05 0 -5.87099 -1.8913e-05 0 -5.87099 -1.8913e-05
0 -5.86601 -1.87647e-05 0 -5.86601 -1.87647e-05 0 -5.86107 -1.86753e-05 0
-5.86107 -1.86753e-05 0 -5.85616 -1.84983e-05 0 -5.85616 -1.84983e-05 0 -5.85126
-1.85079e-05 0 -5.85126 -1.85079e-05 0 -5.84645 -1.87662e-05 0 -5.84645 -1.87662e-05
0 -5.8413 -2.00221e-05 0 -5.8413 -2.00221e-05 0 -5.83634 -1.97903e-05 0
-5.83634 -1.97903e-05 0 -5.83077 -2.09476e-05 0 -5.83077 -2.09476e-05 0 -5.82638
-1.83947e-05 0 -5.82638 -1.83947e-05 0 -5.82004 -2.32331e-05 0 -5.82004 -2.32331e-05
0 -5.81679 -1.11503e-05 0 -5.81679 -1.11503e-05 0 -5.81127 -2.9477e-05 0
-5.81127 -2.9477e-05 0 -5.8037 -6.98815e-05 0 -5.8037 -6.98815e-05 0 
U 3 900 float
0 0 0 0 0 0 0 0 0 0 0
0 0 0 0 0 0 0 0 0 0
0 0 0 0 0 0 0 0 0 0
0 0 0 0 0 0 0 0 0 0
0 0 0 0 0 0 0 0 0 0
0 0 0 0 0 0 0 0 0 0
0 0 0 0 0 0 0 0 0 0
0 0 0 0 0 0 0 0 0 0
0 0 0 0 0 0 0 0 0 0
0 0 0 0 0 0 0 0 0 0
0 0 0 0 0 0 0 0 0 0
0 0 0 0 0 0 0 0 0 0
0 0 0 0 0 0 0 0 0 0
0 0 0 0 0 0 0 0 0 0
0 0 0 0 0 0 0 0 0 0
0 0 0 0 0 0 0 0 0 0
0 0 0 0 0 0 0 0 0 0
0 0 0 0 0 0 0 0 0 0
0 0 0 0 0 0 0 0 0 0
0 0 0 0 0 0 0 0 0 0
0 0 0 0 0 0 0 0 0 0
0 0 0 0 0 0 0 0 0 0
0 0 0 0 0 0 0 0 0 0
0 0 0 0 0 0 0 0 0 0
0 0 0 0 0 0 0 0 0 0
0 0 0 0 0 0 0 0 0 0
0 0 0 0 0 0 0 0 0 0
0 0 0 0 0 0 0 0 0 0
0 0 0 0 0 0 0 0 0 0
0 0 0 0 0 0 0 0 0 0
0 0 0 0 0 0 0 0 0 0
0 0 0 0 0 0 0 0 0 0
0 0 0 0 0 0 0 0 0 0
0 0 0 0 0 0 0 0 0 0
0 0 0 0 0 0 0 0 0 0
0 0 0 0 0 0 0 0 0 0
0 0 0 0 0 0 0 0 0 0
0 0 0 0 0 0 0 0 0 0
0 0 0 0 0 0 0 0 0 0
0 0 0 0 0 0 0 0 0 0
0 0 0 0 0 0 0 0 0 0
0 0 0 0 0 0 0 0 0 0
0 0 0 0 0 0 0 0 0 0
0 0 0 0 0 0 0 0 0 0
0 0 0 0 0 0 0 0 0 0
0 0 0 0 0 0 0 0 0 0
0 0 0 0 0 0 0 0 0 0
0 0 0 0 0 0 0 0 0 0
0 0 0 0 0 0 0 0 0 0
0 0 0 0 0 0 0 0 0 0
0 0 0 0 0 0 0 0 0 0
0 0 0 0 0 0 0 0 0 0
0 0 0 0 0 0 0 0 0 0
0 0 0 0 0 0 0 0 0 0
0 0 0 0 0 0 0 0 0 0
0 0 0 0 0 0 0 0 0 0
0 0 0 0 0 0 0 0 0 0
0 0 0 0 0 0 0 0 0 0
0 0 0 0 0 0 0 0 0 0
0 0 0 0 0 0 0 0 0 0
0 0 0 0 0 0 0 0 0 0
0 0 0 0 0 0 0 0 0 0
0 0 0 0 0 0 0 0 0 0
0 0 0 0 0 0 0 0 0 0
0 0 0 0 0 0 0 0 0 0
0 0 0 0 0 0 0 0 0 0
0 0 0 0 0 0 0 0 0 0
0 0 0 0 0 0 0 0 0 0
0 0 0 0 0 0 0 0 0 0
0 0 0 0 0 0 0 0 0 0
0 0 0 0 0 0 0 0 0 0
0 0 0 0 0 0 0 0 0 0
0 0 0 0 0 0 0 0 0 0
0 0 0 0 0 0 0 0 0 0
0 0 0 0 0 0 0 0 0 0
0 0 0 0 0 0 0 0 0 0
0 0 0 0 0 0 0 0 0 0
0 0 0 0 0 0 0 0 0 0
0 0 0 0 0 0 0 0 0 0
0 0 0 0 0 0 0 0 0 0
0 0 0 0 0 0 0 0 0 0
0 0 0 0 0 0 0 0 0 0
0 0 0 0 0 0 0 0 0 0
0 0 0 0 0 0 0 0 0 0
0 0 0 0 0 0 0 0 0 0
0 0 0 0 0 0 0 0 0 0
0 0 0 0 0 0 0 0 0 0
0 0 0 0 0 0 0 0 0 0
0 0 0 0 0 0 0 0 0 0
0 0 0 0 0 0 0 0 0 0
0 0 0 0 0 0 0 0 0 0
0 0 0 0 0 0 0 0 0 0
0 0 0 0 0 0 0 0 0 0
0 0 0 0 0 0 0 0 0 0
0 0 0 0 0 0 0 0 0 0
0 0 0 0 0 0 0 0 0 0
0 0 0 0 0 0 0 0 0 0
0 0 0 0 0 0 0 0 0 0
0 0 0 0 0 0 0 0 0 0
0 0 0 0 0 0 0 0 0 0
0 0 0 0 0 0 0 0 0 0
0 0 0 0 0 0 0 0 0 0
0 0 0 0 0 0 0 0 0 0
0 0 0 0 0 0 0 0 0 0
0 0 0 0 0 0 0 0 0 0
0 0 0 0 0 0 0 0 0 0
0 0 0 0 0 0 0 0 0 0
0 0 0 0 0 0 0 0 0 0
0 0 0 0 0 0 0 0 0 0
0 0 0 0 0 0 0 0 0 0
0 0 0 0 0 0 0 0 0 0
0 0 0 0 0 0 0 0 0 0
0 0 0 0 0 0 0 0 0 0
0 0 0 0 0 0 0 0 0 0
0 0 0 0 0 0 0 0 0 0
0 0 0 0 0 0 0 0 0 0
0 0 0 0 0 0 0 0 0 0
0 0 0 0 0 0 0 0 0 0
0 0 0 0 0 0 0 0 0 0
0 0 0 0 0 0 0 0 0 0
0 0 0 0 0 0 0 0 0 0
0 0 0 0 0 0 0 0 0 0
0 0 0 0 0 0 0 0 0 0
0 0 0 0 0 0 0 0 0 0
0 0 0 0 0 0 0 0 0 0
0 0 0 0 0 0 0 0 0 0
0 0 0 0 0 0 0 0 0 0
0 0 0 0 0 0 0 0 0 0
0 0 0 0 0 0 0 0 0 0
0 0 0 0 0 0 0 0 0 0
0 0 0 0 0 0 0 0 0 0
0 0 0 0 0 0 0 0 0 0
0 0 0 0 0 0 0 0 0 0
0 0 0 0 0 0 0 0 0 0
0 0 0 0 0 0 0 0 0 0
0 0 0 0 0 0 0 0 0 0
0 0 0 0 0 0 0 0 0 0
0 0 0 0 0 0 0 0 0 0
0 0 0 0 0 0 0 0 0 0
0 0 0 0 0 0 0 0 0 0
0 0 0 0 0 0 0 0 0 0
0 0 0 0 0 0 0 0 0 0
0 0 0 0 0 0 0 0 0 0
0 0 0 0 0 0 0 0 0 0
0 0 0 0 0 0 0 0 0 0
0 0 0 0 0 0 0 0 0 0
0 0 0 0 0 0 0 0 0 0
0 0 0 0 0 0 0 0 0 0
0 0 0 0 0 0 0 0 0 0
0 0 0 0 0 0 0 0 0 0
0 0 0 0 0 0 0 0 0 0
0 0 0 0 0 0 0 0 0 0
0 0 0 0 0 0 0 0 0 0
0 0 0 0 0 0 0 0 0 0
0 0 0 0 0 0 0 0 0 0
0 0 0 0 0 0 0 0 0 0
0 0 0 0 0 0 0 0 0 0
0 0 0 0 0 0 0 0 0 0
0 0 0 0 0 0 0 0 0 0
0 0 0 0 0 0 0 0 0 0
0 0 0 0 0 0 0 0 0 0
0 0 0 0 0 0 0 0 0 0
0 0 0 0 0 0 0 0 0 0
0 0 0 0 0 0 0 0 0 0
0 0 0 0 0 0 0 0 0 0
0 0 0 0 0 0 0 0 0 0
0 0 0 0 0 0 0 0 0 0
0 0 0 0 0 0 0 0 0 0
0 0 0 0 0 0 0 0 0 0
0 0 0 0 0 0 0 0 0 0
0 0 0 0 0 0 0 0 0 0
0 0 0 0 0 0 0 0 0 0
0 0 0 0 0 0 0 0 0 0
0 0 0 0 0 0 0 0 0 0
0 0 0 0 0 0 0 0 0 0
0 0 0 0 0 0 0 0 0 0
0 0 0 0 0 0 0 0 0 0
0 0 0 0 0 0 0 0 0 0
0 0 0 0 0 0 0 0 0 0
0 0 0 0 0 0 0 0 0 0
0 0 0 0 0 0 0 0 0 0
0 0 0 0 0 0 0 0 0 0
0 0 0 0 0 0 0 0 0 0
0 0 0 0 0 0 0 0 0 0
0 0 0 0 0 0 0 0 0 0
0 0 0 0 0 0 0 0 0 0
0 0 0 0 0 0 0 0 0 0
0 0 0 0 0 0 0 0 0 0
0 0 0 0 0 0 0 0 0 0
0 0 0 0 0 0 0 0 0 0
0 0 0 0 0 0 0 0 0 0
0 0 0 0 0 0 0 0 0 0
0 0 0 0 0 0 0 0 0 0
0 0 0 0 0 0 0 0 0 0
0 0 0 0 0 0 0 0 0 0
0 0 0 0 0 0 0 0 0 0
0 0 0 0 0 0 0 0 0 0
0 0 0 0 0 0 0 0 0 0
0 0 0 0 0 0 0 0 0 0
0 0 0 0 0 0 0 0 0 0
0 0 0 0 0 0 0 0 0 0
0 0 0 0 0 0 0 0 0 0
0 0 0 0 0 0 0 0 0 0
0 0 0 0 0 0 0 0 0 0
0 0 0 0 0 0 0 0 0 0
0 0 0 0 0 0 0 0 0 0
0 0 0 0 0 0 0 0 0 0
0 0 0 0 0 0 0 0 0 0
0 0 0 0 0 0 0 0 0 0
0 0 0 0 0 0 0 0 0 0
0 0 0 0 0 0 0 0 0 0
0 0 0 0 0 0 0 0 0 0
0 0 0 0 0 0 0 0 0 0
0 0 0 0 0 0 0 0 0 0
0 0 0 0 0 0 0 0 0 0
0 0 0 0 0 0 0 0 0 0
0 0 0 0 0 0 0 0 0 0
0 0 0 0 0 0 0 0 0 0
0 0 0 0 0 0 0 0 0 0
0 0 0 0 0 0 0 0 0 0
0 0 0 0 0 0 0 0 0 0
0 0 0 0 0 0 0 0 0 0
0 0 0 0 0 0 0 0 0 0
0 0 0 0 0 0 0 0 0 0
0 0 0 0 0 0 0 0 0 0
0 0 0 0 0 0 0 0 0 0
0 0 0 0 0 0 0 0 0 0
0 0 0 0 0 0 0 0 0 0
0 0 0 0 0 0 0 0 0 0
0 0 0 0 0 0 0 0 0 0
0 0 0 0 0 0 0 0 0 0
0 0 0 0 0 0 0 0 0 0
0 0 0 0 0 0 0 0 0 0
0 0 0 0 0 0 0 0 0 0
0 0 0 0 0 0 0 0 0 0
0 0 0 0 0 0 0 0 0 0
0 0 0 0 0 0 0 0 0 0
0 0 0 0 0 0 0 0 0 0
0 0 0 0 0 0 0 0 0 0
0 0 0 0 0 0 0 0 0 0
0 0 0 0 0 0 0 0 0 0
0 0 0 0 0 0 0 0 0 0
0 0 0 0 0 0 0 0 0 0
0 0 0 0 0 0 0 0 0 0
0 0 0 0 0 0 0 0 0 0
0 0 0 0 0 0 0 0 0 0
0 0 0 0 0 0 0 0 0 0
0 0 0 0 0 0 0 0 0 0
0 0 0 0 0 0 0 0 0 0
0 0 0 0 0 0 0 0 0 0
0 0 0 0 0 0 0 0 0 0
0 0 0 0 0 0 0 0 0 0
0 0 0 0 0 0 0 0 0 0
0 0 0 0 0 0 0 0 0 0
0 0 0 0 0 0 0 0 0 0
0 0 0 0 0 0 0 0 0 0
0 0 0 0 0 0 0 0 0 0
0 0 0 0 0 0 0 0 0 0
0 0 0 0 0 0 0 0 0 0
0 0 0 0 0 0 0 0 0 0
0 0 0 0 0 0 0 0 0 0
0 0 0 0 0 0 0 0 0 0
0 0 0 0 0 0 0 0 0 0
0 0 0 0 0 0 0 0 0 0
0 0 0 0 0 0 0 0 0 0
0 0 0 0 0 0 0 0 0 0
0 0 0 0 0 0 0 0 0 0
0 0 0 0 0 0 0 0 0 0
0 0 0 0 0 0 0 0 0 0
0 0 0 0 0 0 0 0 0 
C 3 900 float
0.000485708 0 0.05 0.00097199 0 0.05 0.00097199 0 0.05 0.000485708 0
0.05 0.0019457 0 0.05 0.0019457 0 0.05 0.00292171 0 0.05
0.00292171 0 0.05 0.00390002 0 0.05 0.00390002 0 0.05 0.00488064
0 0.05 0.00488064 0 0.05 0.00586358 0 0.05 0.00586358 0
0.05 0.00684883 0 0.05 0.00684883 0 0.05 0.00783642 0 0.05
0.00783642 0 0.05 0.00882633 0 0.05 0.00882633 0 0.05 0.00981858
0 0.05 0.00981858 0 0.05 0.0108132 0 0.05 0.0108132 0
0.05 0.0118101 0 0.05 0.0118101 0 0.05 0.0128094 0 0.05
0.0128094 0 0.05 0.013811 0 0.05 0.013811 0 0.05 0.0148151
0 0.05 0.0148151 0 0.05 0.0158214 0 0.05 0.0158214 0
0.05 0.0168302 0 0.05 0.0168302 0 0.05 0.0178413 0 0.05
0.0178413 0 0.05 0.0188549 0 0.05 0.0188549 0 0.05 0.0198708
0 0.05 0.0198708 0 0.05 0.0208891 0 0.05 0.0208891 0
0.05 0.0219098 0 0.05 0.0219098 0 0.05 0.0229329 0 0.05
0.0229329 0 0.05 0.0239585 0 0.05 0.0239585 0 0.05 0.0249864
0 0.05 0.0249864 0 0.05 0.0260168 0 0.05 0.0260168 0
0.05 0.0270496 0 0.05 0.0270496 0 0.05 0.0280849 0 0.05
0.0280849 0 0.05 0.0291226 0 0.05 0.0291226 0 0.05 0.0301628
0 0.05 0.0301628 0 0.05 0.0312054 0 0.05 0.0312054 0
0.05 0.0322504 0 0.05 0.0322504 0 0.05 0.033298 0 0.05
0.033298 0 0.05 0.034348 0 0.05 0.034348 0 0.05 0.0354004
0 0.05 0.0354004 0 0.05 0.0364554 0 0.05 0.0364554 0
0.05 0.0375129 0 0.05 0.0375129 0 0.05 0.0385728 0 0.05
0.0385728 0 0.05 0.0396353 0 0.05 0.0396353 0 0.05 0.0407002
0 0.05 0.0407002 0 0.05 0.0417677 0 0.05 0.0417677 0
0.05 0.0428377 0 0.05 0.0428377 0 0.05 0.0439102 0 0.05
0.0439102 0 0.05 0.0449853 0 0.05 0.0449853 0 0.05 0.0460629
0 0.05 0.0460629 0 0.05 0.047143 0 0.05 0.047143 0
0.05 0.0482257 0 0.05 0.0482257 0 0.05 0.0493109 0 0.05
0.0493109 0 0.05 0.0503987 0 0.05 0.0503987 0 0.05 0.0514891
0 0.05 0.0514891 0 0.05 0.052582 0 0.05 0.052582 0
0.05 0.0536775 0 0.05 0.0536775 0 0.05 0.0547756 0 0.05
0.0547756 0 0.05 0.0558763 0 0.05 0.0558763 0 0.05 0.0569796
0 0.05 0.0569796 0 0.05 0.0580855 0 0.05 0.0580855 0
0.05 0.059194 0 0.05 0.059194 0 0.05 0.0603051 0 0.05
0.0603051 0 0.05 0.0614189 0 0.05 0.0614189 0 0.05 0.0625353
0 0.05 0.0625353 0 0.05 0.0636543 0 0.05 0.0636543 0
0.05 0.0647759 0 0.05 0.0647759 0 0.05 0.0659002 0 0.05
0.0659002 0 0.05 0.0670272 0 0.05 0.0670272 0 0.05 0.0681568
0 0.05 0.0681568 0 0.05 0.0692891 0 0.05 0.0692891 0
0.05 0.070424 0 0.05 0.070424 0 0.05 0.0715616 0 0.05
0.0715616 0 0.05 0.0727019 0 0.05 0.0727019 0 0.05 0.0738449
0 0.05 0.0738449 0 0.05 0.0749906 0 0.05 0.0749906 0
0.05 0.076139 0 0.05 0.076139 0 0.05 0.0772902 0 0.05
0.0772902 0 0.05 0.078444 0 0.05 0.078444 0 0.05 0.0796005
0 0.05 0.0796005 0 0.05 0.0807598 0 0.05 0.0807598 0
0.05 0.0819219 0 0.05 0.0819219 0 0.05 0.0830866 0 0.05
0.0830866 0 0.05 0.0842541 0 0.05 0.0842541 0 0.05 0.0854244
0 0.05 0.0854244 0 0.05 0.0865974 0 0.05 0.0865974 0
0.05 0.0877732 0 0.05 0.0877732 0 0.05 0.0889518 0 0.05
0.0889518 0 0.05 0.0901332 0 0.05 0.0901332 0 0.05 0.0913173
0 0.05 0.0913173 0 0.05 0.0925042 0 0.05 0.0925042 0
0.05 0.093694 0 0.05 0.093694 0 0.05 0.0948865 0 0.05
0.0948865 0 0.05 0.0960819 0 0.05 0.0960819 0 0.05 0.0972801
0 0.05 0.0972801 0 0.05 0.0984811 0 0.05 0.0984811 0
0.05 0.0996849 0 0.05 0.0996849 0 0.05 0.100892 0 0.05
0.100892 0 0.05 0.102101 0 0.05 0.102101 0 0.05 0.103314
0 0.05 0.103314 0 0.05 0.104529 0 0.05 0.104529 0
0.05 0.105747 0 0.05 0.105747 0 0.05 0.106968 0 0.05
0.106968 0 0.05 0.108192 0 0.05 0.108192 0 0.05 0.109419
0 0.05 0.109419 0 0.05 0.110648 0 0.05 0.110648 0
0.05 0.111881 0 0.05 0.111881 0 0.05 0.113116 0 0.05
0.113116 0 0.05 0.114355 0 0.05 0.114355 0 0.05 0.115596
0 0.05 0.115596 0 0.05 0.11684 0 0.05 0.11684 0
0.05 0.118087 0 0.05 0.118087 0 0.05 0.119337 0 0.05
0.119337 0 0.05 0.120591 0 0.05 0.120591 0 0.05 0.121847
0 0.05 0.121847 0 0.05 0.123106 0 0.05 0.123106 0
0.05 0.124368 0 0.05 0.124368 0 0.05 0.125632 0 0.05
0.125632 0 0.05 0.1269 0 0.05 0.1269 0 0.05 0.128171
0 0.05 0.128171 0 0.05 0.129445 0 0.05 0.129445 0
0.05 0.130722 0 0.05 0.130722 0 0.05 0.132002 0 0.05
0.132002 0 0.05 0.133285 0 0.05 0.133285 0 0.05 0.134571
0 0.05 0.134571 0 0.05 0.13586 0 0.05 0.13586 0
0.05 0.137152 0 0.05 0.137152 0 0.05 0.138447 0 0.05
0.138447 0 0.05 0.139745 0 0.05 0.139745 0 0.05 0.141047
0 0.05 0.141047 0 0.05 0.142351 0 0.05 0.142351 0
0.05 0.143658 0 0.05 0.143658 0 0.05 0.144969 0 0.05
0.144969 0 0.05 0.146282 0 0.05 0.146282 0 0.05 0.147599
0 0.05 0.147599 0 0.05 0.148919 0 0.05 0.148919 0
0.05 0.150242 0 0.05 0.150242 0 0.05 0.151568 0 0.05
0.151568 0 0.05 0.152897 0 0.05 0.152897 0 0.05 0.154229
0 0.05 0.154229 0 0.05 0.155565 0 0.05 0.155565 0
0.05 0.156903 0 0.05 0.156903 0 0.05 0.158245 0 0.05
0.158245 0 0.05 0.15959 0 0.05 0.15959 0 0.05 0.160938
0 0.05 0.160938 0 0.05 0.162289 0 0.05 0.162289 0
0.05 0.163643 0 0.05 0.163643 0 0.05 0.165001 0 0.05
0.165001 0 0.05 0.166362 0 0.05 0.166362 0 0.05 0.167726
0 0.05 0.167726 0 0.05 0.169093 0 0.05 0.169093 0
0.05 0.170464 0 0.05 0.170464 0 0.05 0.171838 0 0.05
0.171838 0 0.05 0.173214 0 0.05 0.173214 0 0.05 0.174595
0 0.05 0.174595 0 0.05 0.175978 0 0.05 0.175978 0
0.05 0.177365 0 0.05 0.177365 0 0.05 0.178755 0 0.05
0.178755 0 0.05 0.180148 0 0.05 0.180148 0 0.05 0.181545
0 0.05 0.181545 0 0.05 0.182945 0 0.05 0.182945 0
0.05 0.184348 0 0.05 0.184348 0 0.05 0.185754 0 0.05
0.185754 0 0.05 0.187164 0 0.05 0.187164 0 0.05 0.188577
0 0.05 0.188577 0 0.05 0.189994 0 0.05 0.189994 0
0.05 0.191414 0 0.05 0.191414 0 0.05 0.192837 0 0.05
0.192837 0 0.05 0.194263 0 0.05 0.194263 0 0.05 0.195693
0 0.05 0.195693 0 0.05 0.197127 0 0.05 0.197127 0
0.05 0.198563 0 0.05 0.198563 0 0.05 0.200003 0 0.05
0.200003 0 0.05 0.201447 0 0.05 0.201447 0 0.05 0.202894
0 0.05 0.202894 0 0.05 0.204344 0 0.05 0.204344 0
0.05 0.205798 0 0.05 0.205798 0 0.05 0.207214 0 0.05
0.207214 0 0.05 0.208555 0 0.05 0.208555 0 0.05 0.209867
0 0.05 0.209867 0 0.05 0.211193 0 0.05 0.211193 0
0.05 0.212533 0 0.05 0.212533 0 0.05 0.213888 0 0.05
0.213888 0 0.05 0.215258 0 0.05 0.215258 0 0.05 0.216643
0 0.05 0.216643 0 0.05 0.218042 0 0.05 0.218042 0
0.05 0.219457 0 0.05 0.219457 0 0.05 0.220887 0 0.05
0.220887 0 0.05 0.222333 0 0.05 0.222333 0 0.05 0.223795
0 0.05 0.223795 0 0.05 0.225272 0 0.05 0.225272 0
0.05 0.226766 0 0.05 0.226766 0 0.05 0.228275 0 0.05
0.228275 0 0.05 0.229801 0 0.05 0.229801 0 0.05 0.231344
0 0.05 0.231344 0 0.05 0.232904 0 0.05 0.232904 0
0.05 0.23448 0 0.05 0.23448 0 0.05 0.236073 0 0.05
0.236073 0 0.05 0.237684 0 0.05 0.237684 0 0.05 0.239313
0 0.05 0.239313 0 0.05 0.240959 0 0.05 0.240959 0
0.05 0.242623 0 0.05 0.242623 0 0.05 0.244305 0 0.05
0.244305 0 0.05 0.246005 0 0.05 0.246005 0 0.05 0.247724
0 0.05 0.247724 0 0.05 0.249461 0 0.05 0.249461 0
0.05 0.251218 0 0.05 0.251218 0 0.05 0.252993 0 0.05
0.252993 0 0.05 0.254788 0 0.05 0.254788 0 0.05 0.256602
0 0.05 0.256602 0 0.05 0.258436 0 0.05 0.258436 0
0.05 0.26029 0 0.05 0.26029 0 0.05 0.262164 0 0.05
0.262164 0 0.05 0.264059 0 0.05 0.264059 0 0.05 0.265974
0 0.05 0.265974 0 0.05 0.26791 0 0.05 0.26791 0
0.05 0.269867 0 0.05 0.269867 0 0.05 0.271845 0 0.05
0.271845 0 0.05 0.273844 0 0.05 0.273844 0 0.05 0.275866
0 0.05 0.275866 0 0.05 0.277909 0 0.05 0.277909 0
0.05 0.279975 0 0.05 0.279975 0 0.05 0.282063 0 0.05
0.282063 0 0.05 0.284174 0 0.05 0.284174 0 0.05 0.286307
0 0.05 0.286307 0 0.05 0.288464 0 0.05 0.288464 0
0.05 0.290644 0 0.05 0.290644 0 0.05 0.292849 0 0.05
0.292849 0 0.05 0.295076 0 0.05 0.295076 0 0.05 0.297329
0 0.05 0.297329 0 0.05 0.299605 0 0.05 0.299605 0
0.05 0.301907 0 0.05 0.301907 0 0.05 0.304233 0 0.05
0.304233 0 0.05 0.306585 0 0.05 0.306585 0 0.05 0.308962
0 0.05 0.308962 0 0.05 0.311365 0 0.05 0.311365 0
0.05 0.313794 0 0.05 0.313794 0 0.05 0.31625 0 0.05
0.31625 0 0.05 0.318732 0 0.05 0.318732 0 0.05 0.321242
0 0.05 0.321242 0 0.05 0.323778 0 0.05 0.323778 0
0.05 0.326342 0 0.05 0.326342 0 0.05 0.328935 0 0.05
0.328935 0 0.05 0.331555 0 0.05 0.331555 0 0.05 0.334203
0 0.05 0.334203 0 0.05 0.336881 0 0.05 0.336881 0
0.05 0.339587 0 0.05 0.339587 0 0.05 0.342323 0 0.05
0.342323 0 0.05 0.345089 0 0.05 0.345089 0 0.05 0.347885
0 0.05 0.347885 0 0.05 0.350711 0 0.05 0.350711 0
0.05 0.353568 0 0.05 0.353568 0 0.05 0.356456 0 0.05
0.356456 0 0.05 0.359375 0 0.05 0.359375 0 0.05 0.362326
0 0.05 0.362326 0 0.05 0.365309 0 0.05 0.365309 0
0.05 0.368325 0 0.05 0.368325 0 0.05 0.371373 0 0.05
0.371373 0 0.05 0.374455 0 0.05 0.374455 0 0.05 0.37757
0 0.05 0.37757 0 0.05 0.380719 0 0.05 0.380719 0
0.05 0.383902 0 0.05 0.383902 0 0.05 0.387119 0 0.05
0.387119 0 0.05 0.390372 0 0.05 0.390372 0 0.05 0.39366
0 0.05 0.39366 0 0.05 0.396984 0 0.05 0.396984 0
0.05 0.400343 0 0.05 0.400343 0 0.05 0.40374 0 0.05
0.40374 0 0.05 0.407173 0 0.05 0.407173 0 0.05 0.410644
0 0.05 0.410644 0 0.05 0.414152 0 0.05 0.414152 0
0.05 0.417698 0 0.05 0.417698 0 0.05 0.421283 0 0.05
0.421283 0 0.05 0.424907 0 0.05 0.424907 0 0.05 0.428571
0 0.05 0.428571 0 0.05 0.432274 0 0.05 0.432274 0
0.05 0.436017 0 0.05 0.436017 0 0.05 0.439801 0 0.05
0.439801 0 0.05 0.443627 0 0.05 0.443627 0 0.05 0.447493
0 0.05 0.447493 0 0.05 0.451402 0 0.05 0.451402 0
0.05 0.455354 0 0.05 0.455354 0 0.05 0.459348 0 0.05
0.459348 0 0.05 0.463386 0 0.05 0.463386 0 0.05 0.467467
0 0.05 0.467467 0 0.05 0.471593 0 0.05 0.471593 0
0.05 0.475764 0 0.05 0.475764 0 0.05 0.47998 0 0.05
0.47998 0 0.05 0.484242 0 0.05 0.484242 0 0.05 0.48855
0 0.05 0.48855 0 0.05 0.492905 0 0.05 0.492905 0
0.05 0.497308 0 0.05 0.497308 0 0.05 0.501758 0 0.05
0.501758 0 0.05 0.506257 0 0.05 0.506257 0 0.05 0.510804
0 0.05 0.510804 0 0.05 0.515401 0 0.05 0.515401 0
0.05 0.520048 0 0.05 0.520048 0 0.05 0.524746 0 0.05
0.524746 0 0.05 0.529494 0 0.05 0.529494 0 0.05 0.534294
0 0.05 0.534294 0 0.05 0.539147 0 0.05 0.539147 0
0.05 0.544052 0 0.05 0.544052 0 0.05 0.54901 0 0.05
0.54901 0 0.05 0.554022 0 0.05 0.554022 0 0.05 0.559089
0 0.05 0.559089 0 0.05 0.564211 0 0.05 0.564211 0
0.05 0.569388 0 0.05 0.569388 0 0.05 0.574622 0 0.05
0.574622 0 0.05 0.579913 0 0.05 0.579913 0 0.05 0.585261
0 0.05 0.585261 0 0.05 0.590667 0 0.05 0.590667 0
0.05 0.596132 0 0.05 0.596132 0 0.05 0.601657 0 0.05
0.601657 0 0.05 0.607241 0 0.05 0.607241 0 0.05 0.612886
0 0.05 0.612886 0 0.05 0.618593 0 0.05 0.618593 0
0.05 0.624361 0 0.05 0.624361 0 0.05 0.630193 0 0.05
0.630193 0 0.05 0.636087 0 0.05 0.636087 0 0.05 0.642046
0 0.05 0.642046 0 0.05 0.64807 0 0.05 0.64807 0
0.05 0.654158 0 0.05 0.654158 0 0.05 0.660314 0 0.05
0.660314 0 0.05 0.666536 0 0.05 0.666536 0 0.05 0.672825
0 0.05 0.672825 0 0.05 0.679183 0 0.05 0.679183 0
0.05 0.68561 0 0.05 0.68561 0 0.05 0.692107 0 0.05
0.692107 0 0.05 0.698675 0 0.05 0.698675 0 0.05 0.705314
0 0.05 0.705314 0 0.05 0.712025 0 0.05 0.712025 0
0.05 0.718809 0 0.05 0.718809 0 0.05 0.725667 0 0.05
0.725667 0 0.05 0.7326 0 0.05 0.7326 0 0.05 0.739607
0 0.05 0.739607 0 0.05 0.746691 0 0.05 0.746691 0
0.05 0.753852 0 0.05 0.753852 0 0.05 0.761091 0 0.05
0.761091 0 0.05 0.768408 0 0.05 0.768408 0 0.05 0.775805
0 0.05 0.775805 0 0.05 0.783283 0 0.05 0.783283 0
0.05 0.790841 0 0.05 0.790841 0 0.05 0.798482 0 0.05
0.798482 0 0.05 0.806206 0 0.05 0.806206 0 0.05 0.814014
0 0.05 0.814014 0 0.05 0.821906 0 0.05 0.821906 0
0.05 0.829885 0 0.05 0.829885 0 0.05 0.83795 0 0.05
0.83795 0 0.05 0.846103 0 0.05 0.846103 0 0.05 0.854344
0 0.05 0.854344 0 0.05 0.862675 0 0.05 0.862675 0
0.05 0.871097 0 0.05 0.871097 0 0.05 0.87961 0 0.05
0.87961 0 0.05 0.888215 0 0.05 0.888215 0 0.05 0.896914
0 0.05 0.896914 0 0.05 0.905708 0 0.05 0.905708 0
0.05 0.914597 0 0.05 0.914597 0 0.05 0.923583 0 0.05
0.923583 0 0.05 0.933175 0 0.05 0.933175 0 0.05 0.943878
0 0.05 0.943878 0 0.05 0.955113 0 0.05 0.955113 0
0.05 0.966349 0 0.05 0.966349 0 0.05 0.977584 0 0.05
0.977584 0 0.05 0.988819 0 0.05 0.988819 0 0.05 1.00005
0 0.05 1.00005 0 0.05 1.01129 0 0.05 1.01129 0
0.05 1.02253 0 0.05 1.02253 0 0.05 1.03376 0 0.05
1.03376 0 0.05 1.045 0 0.05 1.045 0 0.05 1.05623
0 0.05 1.05623 0 0.05 1.06747 0 0.05 1.06747 0
0.05 1.0787 0 0.05 1.0787 0 0.05 1.08994 0 0.05
1.08994 0 0.05 1.10117 0 0.05 1.10117 0 0.05 1.11241
0 0.05 1.11241 0 0.05 1.12364 0 0.05 1.12364 0
0.05 1.13488 0 0.05 1.13488 0 0.05 1.14611 0 0.05
1.14611 0 0.05 1.15735 0 0.05 1.15735 0 0.05 1.16858
0 0.05 1.16858 0 0.05 1.17982 0 0.05 1.17982 0
0.05 1.19106 0 0.05 1.19106 0 0.05 1.20229 0 0.05
1.20229 0 0.05 1.21353 0 0.05 1.21353 0 0.05 1.22476
0 0.05 1.22476 0 0.05 1.236 0 0.05 1.236 0
0.05 1.24723 0 0.05 1.24723 0 0.05 1.25847 0 0.05
1.25847 0 0.05 1.2697 0 0.05 1.2697 0 0.05 1.28094
0 0.05 1.28094 0 0.05 1.29217 0 0.05 1.29217 0
0.05 1.30341 0 0.05 1.30341 0 0.05 1.31464 0 0.05
1.31464 0 0.05 1.32588 0 0.05 1.32588 0 0.05 1.33711
0 0.05 1.33711 0 0.05 1.34835 0 0.05 1.34835 0
0.05 1.35959 0 0.05 1.35959 0 0.05 1.37082 0 0.05
1.37082 0 0.05 1.38206 0 0.05 1.38206 0 0.05 1.39329
0 0.05 1.39329 0 0.05 1.40453 0 0.05 1.40453 0
0.05 1.41576 0 0.05 1.41576 0 0.05 1.427 0 0.05
1.427 0 0.05 1.43823 0 0.05 1.43823 0 0.05 1.44947
0 0.05 1.44947 0 0.05 1.4607 0 0.05 1.4607 0
0.05 1.47194 0 0.05 1.47194 0 0.05 1.48317 0 0.05
1.48317 0 0.05 1.49441 0 0.05 1.49441 0 0.05 1.50564
0 0.05 1.50564 0 0.05 1.51688 0 0.05 1.51688 0
0.05 1.52812 0 0.05 1.52812 0 0.05 1.53935 0 0.05
1.53935 0 0.05 1.55059 0 0.05 1.55059 0 0.05 1.56182
0 0.05 1.56182 0 0.05 1.57306 0 0.05 1.57306 0
0.05 1.58429 0 0.05 1.58429 0 0.05 1.59553 0 0.05
1.59553 0 0.05 1.60676 0 0.05 1.60676 0 0.05 1.618
0 0.05 1.618 0 0.05 1.62923 0 0.05 1.62923 0
0.05 1.64047 0 0.05 1.64047 0 0.05 1.6517 0 0.05
1.6517 0 0.05 1.66294 0 0.05 1.66294 0 0.05 1.67418
0 0.05 1.67418 0 0.05 1.68541 0 0.05 1.68541 0
0.05 1.69665 0 0.05 1.69665 0 0.05 1.70788 0 0.05
1.70788 0 0.05 1.71912 0 0.05 1.71912 0 0.05 1.73035
0 0.05 1.73035 0 0.05 1.74159 0 0.05 1.74159 0
0.05 1.75282 0 0.05 1.75282 0 0.05 1.76406 0 0.05
1.76406 0 0.05 1.77529 0 0.05 1.77529 0 0.05 1.78653
0 0.05 1.78653 0 0.05 1.79776 0 0.05 1.79776 0
0.05 1.809 0 0.05 1.809 0 0.05 1.82023 0 0.05
1.82023 0 0.05 1.83147 0 0.05 1.83147 0 0.05 1.84271
0 0.05 1.84271 0 0.05 1.85394 0 0.05 1.85394 0
0.05 1.86518 0 0.05 1.86518 0 0.05 1.87641 0 0.05
1.87641 0 0.05 1.88765 0 0.05 1.88765 0 0.05 1.89888
0 0.05 1.89888 0 0.05 1.91012 0 0.05 1.91012 0
0.05 1.92135 0 0.05 1.92135 0 0.05 1.93259 0 0.05
1.93259 0 0.05 1.94382 0 0.05 1.94382 0 0.05 1.95506
0 0.05 1.95506 0 0.05 1.96629 0 0.05 1.96629 0
0.05 1.97753 0 0.05 1.97753 0 0.05 1.98876 0 0.05
1.98876 0 0.05 1.99438 0 0.05 1.99438 0 0.05 
