# vtk DataFile Version 2.0
inlet
ASCII
DATASET POLYDATA
POINTS 772 float
-0.333333 0 0 -0.333333 0 0.1 -0.333333 4.9308e-05 0.1 -0.333333 4.9308e-05
0 -0.333333 9.93539e-05 0.1 -0.333333 9.93539e-05 0 -0.333333 0.000150149 0.1
-0.333333 0.000150149 0 -0.333333 0.000201704 0.1 -0.333333 0.000201704 0 -0.333333
0.00025403 0.1 -0.333333 0.00025403 0 -0.333333 0.00030714 0.1 -0.333333 0.00030714
0 -0.333333 0.000361044 0.1 -0.333333 0.000361044 0 -0.333333 0.000415755 0.1
-0.333333 0.000415755 0 -0.333333 0.000471284 0.1 -0.333333 0.000471284 0 -0.333333
0.000527645 0.1 -0.333333 0.000527645 0 -0.333333 0.000584849 0.1 -0.333333 0.000584849
0 -0.333333 0.000642909 0.1 -0.333333 0.000642909 0 -0.333333 0.000701838 0.1
-0.333333 0.000701838 0 -0.333333 0.000761648 0.1 -0.333333 0.000761648 0 -0.333333
0.000822354 0.1 -0.333333 0.000822354 0 -0.333333 0.000883968 0.1 -0.333333 0.000883968
0 -0.333333 0.000946504 0.1 -0.333333 0.000946504 0 -0.333333 0.00100998 0.1
-0.333333 0.00100998 0 -0.333333 0.0010744 0.1 -0.333333 0.0010744 0 -0.333333
0.00113978 0.1 -0.333333 0.00113978 0 -0.333333 0.00120615 0.1 -0.333333 0.00120615
0 -0.333333 0.00127351 0.1 -0.333333 0.00127351 0 -0.333333 0.00134187 0.1
-0.333333 0.00134187 0 -0.333333 0.00141126 0.1 -0.333333 0.00141126 0 -0.333333
0.00148169 0.1 -0.333333 0.00148169 0 -0.333333 0.00155317 0.1 -0.333333 0.00155317
0 -0.333333 0.00162572 0.1 -0.333333 0.00162572 0 -0.333333 0.00169935 0.1
-0.333333 0.00169935 0 -0.333333 0.00177409 0.1 -0.333333 0.00177409 0 -0.333333
0.00184995 0.1 -0.333333 0.00184995 0 -0.333333 0.00192694 0.1 -0.333333 0.00192694
0 -0.333333 0.00200508 0.1 -0.333333 0.00200508 0 -0.333333 0.0020844 0.1
-0.333333 0.0020844 0 -0.333333 0.0021649 0.1 -0.333333 0.0021649 0 -0.333333
0.0022466 0.1 -0.333333 0.0022466 0 -0.333333 0.00232953 0.1 -0.333333 0.00232953
0 -0.333333 0.0024137 0.1 -0.333333 0.0024137 0 -0.333333 0.00249912 0.1
-0.333333 0.00249912 0 -0.333333 0.00258583 0.1 -0.333333 0.00258583 0 -0.333333
0.00267383 0.1 -0.333333 0.00267383 0 -0.333333 0.00276315 0.1 -0.333333 0.00276315
0 -0.333333 0.00285381 0.1 -0.333333 0.00285381 0 -0.333333 0.00294582 0.1
-0.333333 0.00294582 0 -0.333333 0.00303921 0.1 -0.333333 0.00303921 0 -0.333333
0.003134 0.1 -0.333333 0.003134 0 -0.333333 0.00323021 0.1 -0.333333 0.00323021
0 -0.333333 0.00332786 0.1 -0.333333 0.00332786 0 -0.333333 0.00342696 0.1
-0.333333 0.00342696 0 -0.333333 0.00352755 0.1 -0.333333 0.00352755 0 -0.333333
0.00362965 0.1 -0.333333 0.00362965 0 -0.333333 0.00373327 0.1 -0.333333 0.00373327
0 -0.333333 0.00383845 0.1 -0.333333 0.00383845 0 -0.333333 0.0039452 0.1
-0.333333 0.0039452 0 -0.333333 0.00405354 0.1 -0.333333 0.00405354 0 -0.333333
0.00416351 0.1 -0.333333 0.00416351 0 -0.333333 0.00427512 0.1 -0.333333 0.00427512
0 -0.333333 0.00438841 0.1 -0.333333 0.00438841 0 -0.333333 0.00450338 0.1
-0.333333 0.00450338 0 -0.333333 0.00462008 0.1 -0.333333 0.00462008 0 -0.333333
0.00473853 0.1 -0.333333 0.00473853 0 -0.333333 0.00485875 0.1 -0.333333 0.00485875
0 -0.333333 0.00498076 0.1 -0.333333 0.00498076 0 -0.333333 0.0051046 0.1
-0.333333 0.0051046 0 -0.333333 0.0052303 0.1 -0.333333 0.0052303 0 -0.333333
0.00535788 0.1 -0.333333 0.00535788 0 -0.333333 0.00548736 0.1 -0.333333 0.00548736
0 -0.333333 0.00561879 0.1 -0.333333 0.00561879 0 -0.333333 0.00575218 0.1
-0.333333 0.00575218 0 -0.333333 0.00588756 0.1 -0.333333 0.00588756 0 -0.333333
0.00602497 0.1 -0.333333 0.00602497 0 -0.333333 0.00616444 0.1 -0.333333 0.00616444
0 -0.333333 0.006306 0.1 -0.333333 0.006306 0 -0.333333 0.00644967 0.1
-0.333333 0.00644967 0 -0.333333 0.0065955 0.1 -0.333333 0.0065955 0 -0.333333
0.0067435 0.1 -0.333333 0.0067435 0 -0.333333 0.00689372 0.1 -0.333333 0.00689372
0 -0.333333 0.00704619 0.1 -0.333333 0.00704619 0 -0.333333 0.00720094 0.1
-0.333333 0.00720094 0 -0.333333 0.00735801 0.1 -0.333333 0.00735801 0 -0.333333
0.00751743 0.1 -0.333333 0.00751743 0 -0.333333 0.00767923 0.1 -0.333333 0.00767923
0 -0.333333 0.00784345 0.1 -0.333333 0.00784345 0 -0.333333 0.00801013 0.1
-0.333333 0.00801013 0 -0.333333 0.00817931 0.1 -0.333333 0.00817931 0 -0.333333
0.00835101 0.1 -0.333333 0.00835101 0 -0.333333 0.00852529 0.1 -0.333333 0.00852529
0 -0.333333 0.00870218 0.1 -0.333333 0.00870218 0 -0.333333 0.00888171 0.1
-0.333333 0.00888171 0 -0.333333 0.00906393 0.1 -0.333333 0.00906393 0 -0.333333
0.00924887 0.1 -0.333333 0.00924887 0 -0.333333 0.00943658 0.1 -0.333333 0.00943658
0 -0.333333 0.0096271 0.1 -0.333333 0.0096271 0 -0.333333 0.00982048 0.1
-0.333333 0.00982048 0 -0.333333 0.0100167 0.1 -0.333333 0.0100167 0 -0.333333
0.0102159 0.1 -0.333333 0.0102159 0 -0.333333 0.0104181 0.1 -0.333333 0.0104181
0 -0.333333 0.0106233 0.1 -0.333333 0.0106233 0 -0.333333 0.0108316 0.1
-0.333333 0.0108316 0 -0.333333 0.011043 0.1 -0.333333 0.011043 0 -0.333333
0.0112576 0.1 -0.333333 0.0112576 0 -0.333333 0.0114754 0.1 -0.333333 0.0114754
0 -0.333333 0.0116964 0.1 -0.333333 0.0116964 0 -0.333333 0.0119207 0.1
-0.333333 0.0119207 0 -0.333333 0.0121484 0.1 -0.333333 0.0121484 0 -0.333333
0.0123795 0.1 -0.333333 0.0123795 0 -0.333333 0.0126141 0.1 -0.333333 0.0126141
0 -0.333333 0.0128521 0.1 -0.333333 0.0128521 0 -0.333333 0.0130938 0.1
-0.333333 0.0130938 0 -0.333333 0.013339 0.1 -0.333333 0.013339 0 -0.333333
0.013588 0.1 -0.333333 0.013588 0 -0.333333 0.0138406 0.1 -0.333333 0.0138406
0 -0.333333 0.014097 0.1 -0.333333 0.014097 0 -0.333333 0.0143573 0.1
-0.333333 0.0143573 0 -0.333333 0.0146214 0.1 -0.333333 0.0146214 0 -0.333333
0.0148896 0.1 -0.333333 0.0148896 0 -0.333333 0.0151617 0.1 -0.333333 0.0151617
0 -0.333333 0.0154379 0.1 -0.333333 0.0154379 0 -0.333333 0.0157182 0.1
-0.333333 0.0157182 0 -0.333333 0.0160027 0.1 -0.333333 0.0160027 0 -0.333333
0.0162915 0.1 -0.333333 0.0162915 0 -0.333333 0.0165846 0.1 -0.333333 0.0165846
0 -0.333333 0.0168821 0.1 -0.333333 0.0168821 0 -0.333333 0.017184 0.1
-0.333333 0.017184 0 -0.333333 0.0174905 0.1 -0.333333 0.0174905 0 -0.333333
0.0178015 0.1 -0.333333 0.0178015 0 -0.333333 0.0181172 0.1 -0.333333 0.0181172
0 -0.333333 0.0184376 0.1 -0.333333 0.0184376 0 -0.333333 0.0187629 0.1
-0.333333 0.0187629 0 -0.333333 0.0190929 0.1 -0.333333 0.0190929 0 -0.333333
0.019428 0.1 -0.333333 0.019428 0 -0.333333 0.019768 0.1 -0.333333 0.019768
0 -0.333333 0.0201131 0.1 -0.333333 0.0201131 0 -0.333333 0.0204634 0.1
-0.333333 0.0204634 0 -0.333333 0.020819 0.1 -0.333333 0.020819 0 -0.333333
0.0211798 0.1 -0.333333 0.0211798 0 -0.333333 0.0215461 0.1 -0.333333 0.0215461
0 -0.333333 0.0219178 0.1 -0.333333 0.0219178 0 -0.333333 0.0222951 0.1
-0.333333 0.0222951 0 -0.333333 0.022678 0.1 -0.333333 0.022678 0 -0.333333
0.0230667 0.1 -0.333333 0.0230667 0 -0.333333 0.0234612 0.1 -0.333333 0.0234612
0 -0.333333 0.0238616 0.1 -0.333333 0.0238616 0 -0.333333 0.024268 0.1
-0.333333 0.024268 0 -0.333333 0.0246804 0.1 -0.333333 0.0246804 0 -0.333333
0.0250991 0.1 -0.333333 0.0250991 0 -0.333333 0.025524 0.1 -0.333333 0.025524
0 -0.333333 0.0259552 0.1 -0.333333 0.0259552 0 -0.333333 0.026393 0.1
-0.333333 0.026393 0 -0.333333 0.0268372 0.1 -0.333333 0.0268372 0 -0.333333
0.0272881 0.1 -0.333333 0.0272881 0 -0.333333 0.0277458 0.1 -0.333333 0.0277458
0 -0.333333 0.0282103 0.1 -0.333333 0.0282103 0 -0.333333 0.0286818 0.1
-0.333333 0.0286818 0 -0.333333 0.0291603 0.1 -0.333333 0.0291603 0 -0.333333
0.0296459 0.1 -0.333333 0.0296459 0 -0.333333 0.0301389 0.1 -0.333333 0.0301389
0 -0.333333 0.0306392 0.1 -0.333333 0.0306392 0 -0.333333 0.031147 0.1
-0.333333 0.031147 0 -0.333333 0.0316624 0.1 -0.333333 0.0316624 0 -0.333333
0.0321855 0.1 -0.333333 0.0321855 0 -0.333333 0.0327165 0.1 -0.333333 0.0327165
0 -0.333333 0.0332554 0.1 -0.333333 0.0332554 0 -0.333333 0.0338023 0.1
-0.333333 0.0338023 0 -0.333333 0.0343575 0.1 -0.333333 0.0343575 0 -0.333333
0.0349209 0.1 -0.333333 0.0349209 0 -0.333333 0.0354928 0.1 -0.333333 0.0354928
0 -0.333333 0.0360733 0.1 -0.333333 0.0360733 0 -0.333333 0.0366624 0.1
-0.333333 0.0366624 0 -0.333333 0.0372603 0.1 -0.333333 0.0372603 0 -0.333333
0.0378672 0.1 -0.333333 0.0378672 0 -0.333333 0.0384832 0.1 -0.333333 0.0384832
0 -0.333333 0.0391084 0.1 -0.333333 0.0391084 0 -0.333333 0.0397429 0.1
-0.333333 0.0397429 0 -0.333333 0.040387 0.1 -0.333333 0.040387 0 -0.333333
0.0410406 0.1 -0.333333 0.0410406 0 -0.333333 0.0417041 0.1 -0.333333 0.0417041
0 -0.333333 0.0423775 0.1 -0.333333 0.0423775 0 -0.333333 0.0430609 0.1
-0.333333 0.0430609 0 -0.333333 0.0437546 0.1 -0.333333 0.0437546 0 -0.333333
0.0444587 0.1 -0.333333 0.0444587 0 -0.333333 0.0451733 0.1 -0.333333 0.0451733
0 -0.333333 0.0458986 0.1 -0.333333 0.0458986 0 -0.333333 0.0466348 0.1
-0.333333 0.0466348 0 -0.333333 0.0473819 0.1 -0.333333 0.0473819 0 -0.333333
0.0481403 0.1 -0.333333 0.0481403 0 -0.333333 0.04891 0.1 -0.333333 0.04891
0 -0.333333 0.0496912 0.1 -0.333333 0.0496912 0 -0.333333 0.0504841 0.1
-0.333333 0.0504841 0 -0.333333 0.0512889 0.1 -0.333333 0.0512889 0 -0.333333
0.0521057 0.1 -0.333333 0.0521057 0 -0.333333 0.0529348 0.1 -0.333333 0.0529348
0 -0.333333 0.0537762 0.1 -0.333333 0.0537762 0 -0.333333 0.0546303 0.1
-0.333333 0.0546303 0 -0.333333 0.0554971 0.1 -0.333333 0.0554971 0 -0.333333
0.0563769 0.1 -0.333333 0.0563769 0 -0.333333 0.0572698 0.1 -0.333333 0.0572698
0 -0.333333 0.0581761 0.1 -0.333333 0.0581761 0 -0.333333 0.059096 0.1
-0.333333 0.059096 0 -0.333333 0.0600297 0.1 -0.333333 0.0600297 0 -0.333333
0.0609773 0.1 -0.333333 0.0609773 0 -0.333333 0.0619391 0.1 -0.333333 0.0619391
0 -0.333333 0.0629153 0.1 -0.333333 0.0629153 0 -0.333333 0.0639061 0.1
-0.333333 0.0639061 0 -0.333333 0.0649117 0.1 -0.333333 0.0649117 0 -0.333333
0.0659324 0.1 -0.333333 0.0659324 0 -0.333333 0.0669684 0.1 -0.333333 0.0669684
0 -0.333333 0.0680198 0.1 -0.333333 0.0680198 0 -0.333333 0.069087 0.1
-0.333333 0.069087 0 -0.333333 0.0701701 0.1 -0.333333 0.0701701 0 -0.333333
0.0712695 0.1 -0.333333 0.0712695 0 -0.333333 0.0723853 0.1 -0.333333 0.0723853
0 -0.333333 0.0735179 0.1 -0.333333 0.0735179 0 -0.333333 0.0746673 0.1
-0.333333 0.0746673 0 -0.333333 0.075834 0.1 -0.333333 0.075834 0 -0.333333
0.0770181 0.1 -0.333333 0.0770181 0 -0.333333 0.0782199 0.1 -0.333333 0.0782199
0 -0.333333 0.0794398 0.1 -0.333333 0.0794398 0 -0.333333 0.0806779 0.1
-0.333333 0.0806779 0 -0.333333 0.0819345 0.1 -0.333333 0.0819345 0 -0.333333
0.0832099 0.1 -0.333333 0.0832099 0 -0.333333 0.0845044 0.1 -0.333333 0.0845044
0 -0.333333 0.0858182 0.1 -0.333333 0.0858182 0 -0.333333 0.0871518 0.1
-0.333333 0.0871518 0 -0.333333 0.0885053 0.1 -0.333333 0.0885053 0 -0.333333
0.089879 0.1 -0.333333 0.089879 0 -0.333333 0.0912733 0.1 -0.333333 0.0912733
0 -0.333333 0.0926885 0.1 -0.333333 0.0926885 0 -0.333333 0.0941248 0.1
-0.333333 0.0941248 0 -0.333333 0.0955826 0.1 -0.333333 0.0955826 0 -0.333333
0.0970623 0.1 -0.333333 0.0970623 0 -0.333333 0.0985641 0.1 -0.333333 0.0985641
0 -0.333333 0.100088 0.1 -0.333333 0.100088 0 -0.333333 0.101635 0.1
-0.333333 0.101635 0 -0.333333 0.103206 0.1 -0.333333 0.103206 0 -0.333333
0.104799 0.1 -0.333333 0.104799 0 -0.333333 0.106417 0.1 -0.333333 0.106417
0 -0.333333 0.108059 0.1 -0.333333 0.108059 0 -0.333333 0.109725 0.1
-0.333333 0.109725 0 -0.333333 0.111416 0.1 -0.333333 0.111416 0 -0.333333
0.113133 0.1 -0.333333 0.113133 0 -0.333333 0.114875 0.1 -0.333333 0.114875
0 -0.333333 0.116644 0.1 -0.333333 0.116644 0 -0.333333 0.118438 0.1
-0.333333 0.118438 0 -0.333333 0.12026 0.1 -0.333333 0.12026 0 -0.333333
0.122109 0.1 -0.333333 0.122109 0 -0.333333 0.123986 0.1 -0.333333 0.123986
0 -0.333333 0.12589 0.1 -0.333333 0.12589 0 -0.333333 0.127824 0.1
-0.333333 0.127824 0 -0.333333 0.129786 0.1 -0.333333 0.129786 0 -0.333333
0.131777 0.1 -0.333333 0.131777 0 -0.333333 0.133798 0.1 -0.333333 0.133798
0 -0.333333 0.13585 0.1 -0.333333 0.13585 0 -0.333333 0.137932 0.1
-0.333333 0.137932 0 -0.333333 0.140046 0.1 -0.333333 0.140046 0 -0.333333
0.142191 0.1 -0.333333 0.142191 0 -0.333333 0.144368 0.1 -0.333333 0.144368
0 -0.333333 0.146577 0.1 -0.333333 0.146577 0 -0.333333 0.14882 0.1
-0.333333 0.14882 0 -0.333333 0.151096 0.1 -0.333333 0.151096 0 -0.333333
0.153407 0.1 -0.333333 0.153407 0 -0.333333 0.155752 0.1 -0.333333 0.155752
0 -0.333333 0.158132 0.1 -0.333333 0.158132 0 -0.333333 0.160547 0.1
-0.333333 0.160547 0 -0.333333 0.162999 0.1 -0.333333 0.162999 0 -0.333333
0.165488 0.1 -0.333333 0.165488 0 -0.333333 0.168014 0.1 -0.333333 0.168014
0 -0.333333 0.170577 0.1 -0.333333 0.170577 0 -0.333333 0.173179 0.1
-0.333333 0.173179 0 -0.333333 0.17582 0.1 -0.333333 0.17582 0 -0.333333
0.1785 0.1 -0.333333 0.1785 0 -0.333333 0.181221 0.1 -0.333333 0.181221
0 -0.333333 0.183982 0.1 -0.333333 0.183982 0 -0.333333 0.186784 0.1
-0.333333 0.186784 0 -0.333333 0.189629 0.1 -0.333333 0.189629 0 -0.333333
0.192516 0.1 -0.333333 0.192516 0 -0.333333 0.195446 0.1 -0.333333 0.195446
0 -0.333333 0.19842 0.1 -0.333333 0.19842 0 -0.333333 0.201439 0.1
-0.333333 0.201439 0 -0.333333 0.204502 0.1 -0.333333 0.204502 0 -0.333333
0.207612 0.1 -0.333333 0.207612 0 -0.333333 0.210768 0.1 -0.333333 0.210768
0 -0.333333 0.213971 0.1 -0.333333 0.213971 0 -0.333333 0.217223 0.1
-0.333333 0.217223 0 -0.333333 0.220523 0.1 -0.333333 0.220523 0 -0.333333
0.223872 0.1 -0.333333 0.223872 0 -0.333333 0.227271 0.1 -0.333333 0.227271
0 -0.333333 0.230722 0.1 -0.333333 0.230722 0 -0.333333 0.234224 0.1
-0.333333 0.234224 0 -0.333333 0.237778 0.1 -0.333333 0.237778 0 -0.333333
0.241385 0.1 -0.333333 0.241385 0 -0.333333 0.245047 0.1 -0.333333 0.245047
0 -0.333333 0.248763 0.1 -0.333333 0.248763 0 -0.333333 0.252535 0.1
-0.333333 0.252535 0 -0.333333 0.256363 0.1 -0.333333 0.256363 0 -0.333333
0.260249 0.1 -0.333333 0.260249 0 -0.333333 0.264193 0.1 -0.333333 0.264193
0 -0.333333 0.268196 0.1 -0.333333 0.268196 0 -0.333333 0.272258 0.1
-0.333333 0.272258 0 -0.333333 0.276382 0.1 -0.333333 0.276382 0 -0.333333
0.280567 0.1 -0.333333 0.280567 0 -0.333333 0.284815 0.1 -0.333333 0.284815
0 -0.333333 0.289126 0.1 -0.333333 0.289126 0 -0.333333 0.293502 0.1
-0.333333 0.293502 0 -0.333333 0.297944 0.1 -0.333333 0.297944 0 -0.333333
0.302452 0.1 -0.333333 0.302452 0 -0.333333 0.307027 0.1 -0.333333 0.307027
0 -0.333333 0.311671 0.1 -0.333333 0.311671 0 -0.333333 0.316384 0.1
-0.333333 0.316384 0 -0.333333 0.321168 0.1 -0.333333 0.321168 0 -0.333333
0.326023 0.1 -0.333333 0.326023 0 -0.333333 0.330951 0.1 -0.333333 0.330951
0 -0.333333 0.335953 0.1 -0.333333 0.335953 0 -0.333333 0.34103 0.1
-0.333333 0.34103 0 -0.333333 0.346183 0.1 -0.333333 0.346183 0 -0.333333
0.351412 0.1 -0.333333 0.351412 0 -0.333333 0.35672 0.1 -0.333333 0.35672
0 -0.333333 0.362108 0.1 -0.333333 0.362108 0 -0.333333 0.367576 0.1
-0.333333 0.367576 0 -0.333333 0.373126 0.1 -0.333333 0.373126 0 -0.333333
0.378759 0.1 -0.333333 0.378759 0 -0.333333 0.384476 0.1 -0.333333 0.384476
0 -0.333333 0.390279 0.1 -0.333333 0.390279 0 -0.333333 0.396168 0.1
-0.333333 0.396168 0 -0.333333 0.402146 0.1 -0.333333 0.402146 0 -0.333333
0.408213 0.1 -0.333333 0.408213 0 -0.333333 0.414371 0.1 -0.333333 0.414371
0 -0.333333 0.420621 0.1 -0.333333 0.420621 0 -0.333333 0.426965 0.1
-0.333333 0.426965 0 -0.333333 0.433404 0.1 -0.333333 0.433404 0 -0.333333
0.439939 0.1 -0.333333 0.439939 0 -0.333333 0.446571 0.1 -0.333333 0.446571
0 -0.333333 0.453303 0.1 -0.333333 0.453303 0 -0.333333 0.460136 0.1
-0.333333 0.460136 0 -0.333333 0.467071 0.1 -0.333333 0.467071 0 -0.333333
0.47411 0.1 -0.333333 0.47411 0 -0.333333 0.481254 0.1 -0.333333 0.481254
0 -0.333333 0.488505 0.1 -0.333333 0.488505 0 -0.333333 0.495864 0.1
-0.333333 0.495864 0 -0.333333 0.503334 0.1 -0.333333 0.503334 0 -0.333333
0.510916 0.1 -0.333333 0.510916 0 -0.333333 0.51861 0.1 -0.333333 0.51861
0 -0.333333 0.52642 0.1 -0.333333 0.52642 0 -0.333333 0.534347 0.1
-0.333333 0.534347 0 -0.333333 0.542393 0.1 -0.333333 0.542393 0 -0.333333
0.550559 0.1 -0.333333 0.550559 0 -0.333333 0.558847 0.1 -0.333333 0.558847
0 -0.333333 0.567259 0.1 -0.333333 0.567259 0 -0.333333 0.575797 0.1
-0.333333 0.575797 0 -0.333333 0.584463 0.1 -0.333333 0.584463 0 -0.333333
0.593258 0.1 -0.333333 0.593258 0 -0.333333 0.602186 0.1 -0.333333 0.602186
0 -0.333333 0.611246 0.1 -0.333333 0.611246 0 -0.333333 0.620443 0.1
-0.333333 0.620443 0 -0.333333 0.629776 0.1 -0.333333 0.629776 0 -0.333333
0.63925 0.1 -0.333333 0.63925 0 -0.333333 0.648865 0.1 -0.333333 0.648865
0 -0.333333 0.658625 0.1 -0.333333 0.658625 0 -0.333333 0.66853 0.1
-0.333333 0.66853 0 -0.333333 0.678583 0.1 -0.333333 0.678583 0 -0.333333
0.688787 0.1 -0.333333 0.688787 0 -0.333333 0.699144 0.1 -0.333333 0.699144
0 -0.333333 0.709656 0.1 -0.333333 0.709656 0 -0.333333 0.720324 0.1
-0.333333 0.720324 0 -0.333333 0.731153 0.1 -0.333333 0.731153 0 -0.333333
0.742144 0.1 -0.333333 0.742144 0 -0.333333 0.753299 0.1 -0.333333 0.753299
0 -0.333333 0.764621 0.1 -0.333333 0.764621 0 -0.333333 0.776112 0.1
-0.333333 0.776112 0 -0.333333 0.787776 0.1 -0.333333 0.787776 0 -0.333333
0.799614 0.1 -0.333333 0.799614 0 -0.333333 0.811629 0.1 -0.333333 0.811629
0 -0.333333 0.823824 0.1 -0.333333 0.823824 0 -0.333333 0.836201 0.1
-0.333333 0.836201 0 -0.333333 0.848764 0.1 -0.333333 0.848764 0 -0.333333
0.861514 0.1 -0.333333 0.861514 0 -0.333333 0.874456 0.1 -0.333333 0.874456
0 -0.333333 0.887591 0.1 -0.333333 0.887591 0 -0.333333 0.900922 0.1
-0.333333 0.900922 0 -0.333333 0.914453 0.1 -0.333333 0.914453 0 -0.333333
0.928187 0.1 -0.333333 0.928187 0 -0.333333 0.942126 0.1 -0.333333 0.942126
0 -0.333333 0.956274 0.1 -0.333333 0.956274 0 -0.333333 0.970633 0.1
-0.333333 0.970633 0 -0.333333 0.985208 0.1 -0.333333 0.985208 0 -0.333333
1 0.1 -0.333333 1 0 
POLYGONS 385 1925
4 0 1 2 3 4 3 2 4 5 4
5 4 6 7 4 7 6 8 9 4
9 8 10 11 4 11 10 12 13 4
13 12 14 15 4 15 14 16 17 4
17 16 18 19 4 19 18 20 21 4
21 20 22 23 4 23 22 24 25 4
25 24 26 27 4 27 26 28 29 4
29 28 30 31 4 31 30 32 33 4
33 32 34 35 4 35 34 36 37 4
37 36 38 39 4 39 38 40 41 4
41 40 42 43 4 43 42 44 45 4
45 44 46 47 4 47 46 48 49 4
49 48 50 51 4 51 50 52 53 4
53 52 54 55 4 55 54 56 57 4
57 56 58 59 4 59 58 60 61 4
61 60 62 63 4 63 62 64 65 4
65 64 66 67 4 67 66 68 69 4
69 68 70 71 4 71 70 72 73 4
73 72 74 75 4 75 74 76 77 4
77 76 78 79 4 79 78 80 81 4
81 80 82 83 4 83 82 84 85 4
85 84 86 87 4 87 86 88 89 4
89 88 90 91 4 91 90 92 93 4
93 92 94 95 4 95 94 96 97 4
97 96 98 99 4 99 98 100 101 4
101 100 102 103 4 103 102 104 105 4
105 104 106 107 4 107 106 108 109 4
109 108 110 111 4 111 110 112 113 4
113 112 114 115 4 115 114 116 117 4
117 116 118 119 4 119 118 120 121 4
121 120 122 123 4 123 122 124 125 4
125 124 126 127 4 127 126 128 129 4
129 128 130 131 4 131 130 132 133 4
133 132 134 135 4 135 134 136 137 4
137 136 138 139 4 139 138 140 141 4
141 140 142 143 4 143 142 144 145 4
145 144 146 147 4 147 146 148 149 4
149 148 150 151 4 151 150 152 153 4
153 152 154 155 4 155 154 156 157 4
157 156 158 159 4 159 158 160 161 4
161 160 162 163 4 163 162 164 165 4
165 164 166 167 4 167 166 168 169 4
169 168 170 171 4 171 170 172 173 4
173 172 174 175 4 175 174 176 177 4
177 176 178 179 4 179 178 180 181 4
181 180 182 183 4 183 182 184 185 4
185 184 186 187 4 187 186 188 189 4
189 188 190 191 4 191 190 192 193 4
193 192 194 195 4 195 194 196 197 4
197 196 198 199 4 199 198 200 201 4
201 200 202 203 4 203 202 204 205 4
205 204 206 207 4 207 206 208 209 4
209 208 210 211 4 211 210 212 213 4
213 212 214 215 4 215 214 216 217 4
217 216 218 219 4 219 218 220 221 4
221 220 222 223 4 223 222 224 225 4
225 224 226 227 4 227 226 228 229 4
229 228 230 231 4 231 230 232 233 4
233 232 234 235 4 235 234 236 237 4
237 236 238 239 4 239 238 240 241 4
241 240 242 243 4 243 242 244 245 4
245 244 246 247 4 247 246 248 249 4
249 248 250 251 4 251 250 252 253 4
253 252 254 255 4 255 254 256 257 4
257 256 258 259 4 259 258 260 261 4
261 260 262 263 4 263 262 264 265 4
265 264 266 267 4 267 266 268 269 4
269 268 270 271 4 271 270 272 273 4
273 272 274 275 4 275 274 276 277 4
277 276 278 279 4 279 278 280 281 4
281 280 282 283 4 283 282 284 285 4
285 284 286 287 4 287 286 288 289 4
289 288 290 291 4 291 290 292 293 4
293 292 294 295 4 295 294 296 297 4
297 296 298 299 4 299 298 300 301 4
301 300 302 303 4 303 302 304 305 4
305 304 306 307 4 307 306 308 309 4
309 308 310 311 4 311 310 312 313 4
313 312 314 315 4 315 314 316 317 4
317 316 318 319 4 319 318 320 321 4
321 320 322 323 4 323 322 324 325 4
325 324 326 327 4 327 326 328 329 4
329 328 330 331 4 331 330 332 333 4
333 332 334 335 4 335 334 336 337 4
337 336 338 339 4 339 338 340 341 4
341 340 342 343 4 343 342 344 345 4
345 344 346 347 4 347 346 348 349 4
349 348 350 351 4 351 350 352 353 4
353 352 354 355 4 355 354 356 357 4
357 356 358 359 4 359 358 360 361 4
361 360 362 363 4 363 362 364 365 4
365 364 366 367 4 367 366 368 369 4
369 368 370 371 4 371 370 372 373 4
373 372 374 375 4 375 374 376 377 4
377 376 378 379 4 379 378 380 381 4
381 380 382 383 4 383 382 384 385 4
385 384 386 387 4 387 386 388 389 4
389 388 390 391 4 391 390 392 393 4
393 392 394 395 4 395 394 396 397 4
397 396 398 399 4 399 398 400 401 4
401 400 402 403 4 403 402 404 405 4
405 404 406 407 4 407 406 408 409 4
409 408 410 411 4 411 410 412 413 4
413 412 414 415 4 415 414 416 417 4
417 416 418 419 4 419 418 420 421 4
421 420 422 423 4 423 422 424 425 4
425 424 426 427 4 427 426 428 429 4
429 428 430 431 4 431 430 432 433 4
433 432 434 435 4 435 434 436 437 4
437 436 438 439 4 439 438 440 441 4
441 440 442 443 4 443 442 444 445 4
445 444 446 447 4 447 446 448 449 4
449 448 450 451 4 451 450 452 453 4
453 452 454 455 4 455 454 456 457 4
457 456 458 459 4 459 458 460 461 4
461 460 462 463 4 463 462 464 465 4
465 464 466 467 4 467 466 468 469 4
469 468 470 471 4 471 470 472 473 4
473 472 474 475 4 475 474 476 477 4
477 476 478 479 4 479 478 480 481 4
481 480 482 483 4 483 482 484 485 4
485 484 486 487 4 487 486 488 489 4
489 488 490 491 4 491 490 492 493 4
493 492 494 495 4 495 494 496 497 4
497 496 498 499 4 499 498 500 501 4
501 500 502 503 4 503 502 504 505 4
505 504 506 507 4 507 506 508 509 4
509 508 510 511 4 511 510 512 513 4
513 512 514 515 4 515 514 516 517 4
517 516 518 519 4 519 518 520 521 4
521 520 522 523 4 523 522 524 525 4
525 524 526 527 4 527 526 528 529 4
529 528 530 531 4 531 530 532 533 4
533 532 534 535 4 535 534 536 537 4
537 536 538 539 4 539 538 540 541 4
541 540 542 543 4 543 542 544 545 4
545 544 546 547 4 547 546 548 549 4
549 548 550 551 4 551 550 552 553 4
553 552 554 555 4 555 554 556 557 4
557 556 558 559 4 559 558 560 561 4
561 560 562 563 4 563 562 564 565 4
565 564 566 567 4 567 566 568 569 4
569 568 570 571 4 571 570 572 573 4
573 572 574 575 4 575 574 576 577 4
577 576 578 579 4 579 578 580 581 4
581 580 582 583 4 583 582 584 585 4
585 584 586 587 4 587 586 588 589 4
589 588 590 591 4 591 590 592 593 4
593 592 594 595 4 595 594 596 597 4
597 596 598 599 4 599 598 600 601 4
601 600 602 603 4 603 602 604 605 4
605 604 606 607 4 607 606 608 609 4
609 608 610 611 4 611 610 612 613 4
613 612 614 615 4 615 614 616 617 4
617 616 618 619 4 619 618 620 621 4
621 620 622 623 4 623 622 624 625 4
625 624 626 627 4 627 626 628 629 4
629 628 630 631 4 631 630 632 633 4
633 632 634 635 4 635 634 636 637 4
637 636 638 639 4 639 638 640 641 4
641 640 642 643 4 643 642 644 645 4
645 644 646 647 4 647 646 648 649 4
649 648 650 651 4 651 650 652 653 4
653 652 654 655 4 655 654 656 657 4
657 656 658 659 4 659 658 660 661 4
661 660 662 663 4 663 662 664 665 4
665 664 666 667 4 667 666 668 669 4
669 668 670 671 4 671 670 672 673 4
673 672 674 675 4 675 674 676 677 4
677 676 678 679 4 679 678 680 681 4
681 680 682 683 4 683 682 684 685 4
685 684 686 687 4 687 686 688 689 4
689 688 690 691 4 691 690 692 693 4
693 692 694 695 4 695 694 696 697 4
697 696 698 699 4 699 698 700 701 4
701 700 702 703 4 703 702 704 705 4
705 704 706 707 4 707 706 708 709 4
709 708 710 711 4 711 710 712 713 4
713 712 714 715 4 715 714 716 717 4
717 716 718 719 4 719 718 720 721 4
721 720 722 723 4 723 722 724 725 4
725 724 726 727 4 727 726 728 729 4
729 728 730 731 4 731 730 732 733 4
733 732 734 735 4 735 734 736 737 4
737 736 738 739 4 739 738 740 741 4
741 740 742 743 4 743 742 744 745 4
745 744 746 747 4 747 746 748 749 4
749 748 750 751 4 751 750 752 753 4
753 752 754 755 4 755 754 756 757 4
757 756 758 759 4 759 758 760 761 4
761 760 762 763 4 763 762 764 765 4
765 764 766 767 4 767 766 768 769 4
769 768 770 771 
CELL_DATA 385
FIELD attributes 12
patchID 1 385 float
0 0 0 0 0 0 0 0 0 0 0
0 0 0 0 0 0 0 0 0 0
0 0 0 0 0 0 0 0 0 0
0 0 0 0 0 0 0 0 0 0
0 0 0 0 0 0 0 0 0 0
0 0 0 0 0 0 0 0 0 0
0 0 0 0 0 0 0 0 0 0
0 0 0 0 0 0 0 0 0 0
0 0 0 0 0 0 0 0 0 0
0 0 0 0 0 0 0 0 0 0
0 0 0 0 0 0 0 0 0 0
0 0 0 0 0 0 0 0 0 0
0 0 0 0 0 0 0 0 0 0
0 0 0 0 0 0 0 0 0 0
0 0 0 0 0 0 0 0 0 0
0 0 0 0 0 0 0 0 0 0
0 0 0 0 0 0 0 0 0 0
0 0 0 0 0 0 0 0 0 0
0 0 0 0 0 0 0 0 0 0
0 0 0 0 0 0 0 0 0 0
0 0 0 0 0 0 0 0 0 0
0 0 0 0 0 0 0 0 0 0
0 0 0 0 0 0 0 0 0 0
0 0 0 0 0 0 0 0 0 0
0 0 0 0 0 0 0 0 0 0
0 0 0 0 0 0 0 0 0 0
0 0 0 0 0 0 0 0 0 0
0 0 0 0 0 0 0 0 0 0
0 0 0 0 0 0 0 0 0 0
0 0 0 0 0 0 0 0 0 0
0 0 0 0 0 0 0 0 0 0
0 0 0 0 0 0 0 0 0 0
0 0 0 0 0 0 0 0 0 0
0 0 0 0 0 0 0 0 0 0
0 0 0 0 0 0 0 0 0 0
0 0 0 0 0 0 0 0 0 0
0 0 0 0 0 0 0 0 0 0
0 0 0 0 0 0 0 0 0 0
0 0 0 0 
Cy 1 385 float
2.4654e-05 7.4331e-05 0.000124751 0.000175926 0.000227867 0.000280585 0.000334092 0.000388399 0.000443519 0.000499465 0.000556247
0.000613879 0.000672373 0.000731743 0.000792001 0.000853161 0.000915236 0.00097824 0.00104219 0.00110709 0.00117297
0.00123983 0.00130769 0.00137656 0.00144647 0.00151743 0.00158944 0.00166254 0.00173672 0.00181202 0.00188844
0.00196601 0.00204474 0.00212465 0.00220575 0.00228806 0.00237161 0.00245641 0.00254248 0.00262983 0.00271849
0.00280848 0.00289982 0.00299252 0.00308661 0.00318211 0.00327903 0.00337741 0.00347726 0.0035786 0.00368146
0.00378586 0.00389182 0.00399937 0.00410853 0.00421932 0.00433176 0.00444589 0.00456173 0.00467931 0.00479864
0.00491975 0.00504268 0.00516745 0.00529409 0.00542262 0.00555307 0.00568548 0.00581987 0.00595627 0.00609471
0.00623522 0.00637784 0.00652258 0.0066695 0.00681861 0.00696996 0.00712357 0.00727948 0.00743772 0.00759833
0.00776134 0.00792679 0.00809472 0.00826516 0.00843815 0.00861373 0.00879194 0.00897282 0.0091564 0.00934273
0.00953184 0.00972379 0.00991861 0.0101163 0.010317 0.0105207 0.0107275 0.0109373 0.0111503 0.0113665
0.0115859 0.0118085 0.0120346 0.012264 0.0124968 0.0127331 0.012973 0.0132164 0.0134635 0.0137143
0.0139688 0.0142272 0.0144894 0.0147555 0.0150256 0.0152998 0.015578 0.0158605 0.0161471 0.016438
0.0167333 0.0170331 0.0173373 0.017646 0.0179594 0.0182774 0.0186003 0.0189279 0.0192605 0.019598
0.0199406 0.0202883 0.0206412 0.0209994 0.0213629 0.0217319 0.0221064 0.0224866 0.0228724 0.023264
0.0236614 0.0240648 0.0244742 0.0248898 0.0253115 0.0257396 0.0261741 0.0266151 0.0270627 0.027517
0.027978 0.028446 0.028921 0.0294031 0.0298924 0.0303891 0.0308931 0.0314047 0.031924 0.032451
0.0329859 0.0335289 0.0340799 0.0346392 0.0352069 0.035783 0.0363678 0.0369614 0.0375638 0.0381752
0.0387958 0.0394256 0.0400649 0.0407138 0.0413724 0.0420408 0.0427192 0.0434078 0.0441067 0.044816
0.045536 0.0462667 0.0470084 0.0477611 0.0485251 0.0493006 0.0500877 0.0508865 0.0516973 0.0525202
0.0533555 0.0542032 0.0550637 0.055937 0.0568233 0.057723 0.0586361 0.0595629 0.0605035 0.0614582
0.0624272 0.0634107 0.0644089 0.0654221 0.0664504 0.0674941 0.0685534 0.0696286 0.0707198 0.0718274
0.0729516 0.0740926 0.0752506 0.076426 0.077619 0.0788299 0.0800588 0.0813062 0.0825722 0.0838571
0.0851613 0.086485 0.0878285 0.0891921 0.0905761 0.0919809 0.0934066 0.0948537 0.0963225 0.0978132
0.0993262 0.100862 0.102421 0.104003 0.105608 0.107238 0.108892 0.110571 0.112275 0.114004
0.115759 0.117541 0.119349 0.121185 0.123047 0.124938 0.126857 0.128805 0.130781 0.132788
0.134824 0.136891 0.138989 0.141118 0.143279 0.145473 0.147699 0.149958 0.152252 0.154579
0.156942 0.15934 0.161773 0.164244 0.166751 0.169295 0.171878 0.174499 0.17716 0.17986
0.182601 0.185383 0.188207 0.191072 0.193981 0.196933 0.199929 0.20297 0.206057 0.20919
0.21237 0.215597 0.218873 0.222197 0.225572 0.228996 0.232473 0.236001 0.239582 0.243216
0.246905 0.250649 0.254449 0.258306 0.262221 0.266194 0.270227 0.27432 0.278475 0.282691
0.286971 0.291314 0.295723 0.300198 0.304739 0.309349 0.314027 0.318776 0.323596 0.328487
0.333452 0.338492 0.343606 0.348797 0.354066 0.359414 0.364842 0.370351 0.375942 0.381617
0.387377 0.393223 0.399157 0.40518 0.411292 0.417496 0.423793 0.430184 0.436671 0.443255
0.449937 0.45672 0.463604 0.47059 0.477682 0.484879 0.492185 0.499599 0.507125 0.514763
0.522515 0.530384 0.53837 0.546476 0.554703 0.563053 0.571528 0.58013 0.588861 0.597722
0.606716 0.615844 0.625109 0.634513 0.644058 0.653745 0.663577 0.673557 0.683685 0.693966
0.7044 0.71499 0.725739 0.736648 0.747721 0.75896 0.770366 0.781944 0.793695 0.805621
0.817726 0.830012 0.842482 0.855139 0.867985 0.881023 0.894256 0.907688 0.92132 0.935157
0.9492 0.963454 0.97792 0.992604 
nut 1 385 float
1.24496e-07 1.24496e-07 1.24496e-07 1.24496e-07 1.24496e-07 1.24496e-07 1.24496e-07 1.24496e-07 1.24496e-07 1.24496e-07 1.24496e-07
1.24496e-07 1.24496e-07 1.24496e-07 1.24496e-07 1.24496e-07 1.24496e-07 1.24496e-07 1.24496e-07 1.24496e-07 1.24496e-07
1.24496e-07 1.24496e-07 1.24496e-07 1.24496e-07 1.24496e-07 1.24496e-07 1.24496e-07 1.24496e-07 1.24496e-07 1.24496e-07
1.24496e-07 1.24496e-07 1.24496e-07 1.24496e-07 1.24496e-07 1.24496e-07 1.24496e-07 1.24496e-07 1.24496e-07 1.24496e-07
1.24496e-07 1.24496e-07 1.24496e-07 1.24496e-07 1.24496e-07 1.24496e-07 1.24496e-07 1.24496e-07 1.24496e-07 1.24496e-07
1.24496e-07 1.24496e-07 1.24496e-07 1.24496e-07 1.24496e-07 1.24496e-07 1.24496e-07 1.24496e-07 1.24496e-07 1.24496e-07
1.24496e-07 1.24496e-07 1.24496e-07 1.24496e-07 1.24496e-07 1.24496e-07 1.24496e-07 1.24496e-07 1.24496e-07 1.24496e-07
1.24496e-07 1.24496e-07 1.24496e-07 1.24496e-07 1.24496e-07 1.24496e-07 1.24496e-07 1.24496e-07 1.24496e-07 1.24496e-07
1.24496e-07 1.24496e-07 1.24496e-07 1.24496e-07 1.24496e-07 1.24496e-07 1.24496e-07 1.24496e-07 1.24496e-07 1.24496e-07
1.24496e-07 1.24496e-07 1.24496e-07 1.24496e-07 1.24496e-07 1.24496e-07 1.24496e-07 1.24496e-07 1.24496e-07 1.24496e-07
1.24496e-07 1.24496e-07 1.24496e-07 1.24496e-07 1.24496e-07 1.24496e-07 1.24496e-07 1.24496e-07 1.24496e-07 1.24496e-07
1.24496e-07 1.24496e-07 1.24496e-07 1.24496e-07 1.24496e-07 1.24496e-07 1.24496e-07 1.24496e-07 1.24496e-07 1.24496e-07
1.24496e-07 1.24496e-07 1.24496e-07 1.24496e-07 1.24496e-07 1.24496e-07 1.24496e-07 1.24496e-07 1.24496e-07 1.24496e-07
1.24496e-07 1.24496e-07 1.24496e-07 1.24496e-07 1.24496e-07 1.24496e-07 1.24496e-07 1.24496e-07 1.24496e-07 1.24496e-07
1.24496e-07 1.24496e-07 1.24496e-07 1.24496e-07 1.24496e-07 1.24496e-07 1.24496e-07 1.24496e-07 1.24496e-07 1.24496e-07
1.24496e-07 1.24496e-07 1.24496e-07 1.24496e-07 1.24496e-07 1.24496e-07 1.24496e-07 1.24496e-07 1.24496e-07 1.24496e-07
1.24496e-07 1.24496e-07 1.24496e-07 1.24496e-07 1.24496e-07 1.24496e-07 1.24496e-07 1.24496e-07 1.24496e-07 1.24496e-07
1.24496e-07 1.24496e-07 1.24496e-07 1.24496e-07 1.24496e-07 1.24496e-07 1.24496e-07 1.24496e-07 1.24496e-07 1.24496e-07
1.24496e-07 1.24496e-07 1.24496e-07 1.24496e-07 1.24496e-07 1.24496e-07 1.24496e-07 1.24496e-07 1.24496e-07 1.24496e-07
1.24496e-07 1.24496e-07 1.24496e-07 1.24496e-07 1.24496e-07 1.24496e-07 1.24496e-07 1.24496e-07 1.24496e-07 1.24496e-07
1.24496e-07 1.24496e-07 1.24496e-07 1.24496e-07 1.24496e-07 1.24496e-07 1.24496e-07 1.24496e-07 1.24496e-07 1.24496e-07
1.24496e-07 1.24496e-07 1.24496e-07 1.24496e-07 1.24496e-07 1.24496e-07 1.24496e-07 1.24496e-07 1.24496e-07 1.24496e-07
1.24496e-07 1.24496e-07 1.24496e-07 1.24496e-07 1.24496e-07 1.24496e-07 1.24496e-07 1.24496e-07 1.24496e-07 1.24496e-07
1.24496e-07 1.24496e-07 1.24496e-07 1.24496e-07 1.24496e-07 1.24496e-07 1.24496e-07 1.24496e-07 1.24496e-07 1.24496e-07
1.24496e-07 1.24496e-07 1.24496e-07 1.24496e-07 1.24496e-07 1.24496e-07 1.24496e-07 1.24496e-07 1.24496e-07 1.24496e-07
1.24496e-07 1.24496e-07 1.24496e-07 1.24496e-07 1.24496e-07 1.24496e-07 1.24496e-07 1.24496e-07 1.24496e-07 1.24496e-07
1.24496e-07 1.24496e-07 1.24496e-07 1.24496e-07 1.24496e-07 1.24496e-07 1.24496e-07 1.24496e-07 1.24496e-07 1.24496e-07
1.24496e-07 1.24496e-07 1.24496e-07 1.24496e-07 1.24496e-07 1.24496e-07 1.24496e-07 1.24496e-07 1.24496e-07 1.24496e-07
1.24496e-07 1.24496e-07 1.24496e-07 1.24496e-07 1.24496e-07 1.24496e-07 1.24496e-07 1.24496e-07 1.24496e-07 1.24496e-07
1.24496e-07 1.24496e-07 1.24496e-07 1.24496e-07 1.24496e-07 1.24496e-07 1.24496e-07 1.24496e-07 1.24496e-07 1.24496e-07
1.24496e-07 1.24496e-07 1.24496e-07 1.24496e-07 1.24496e-07 1.24496e-07 1.24496e-07 1.24496e-07 1.24496e-07 1.24496e-07
1.24496e-07 1.24496e-07 1.24496e-07 1.24496e-07 1.24496e-07 1.24496e-07 1.24496e-07 1.24496e-07 1.24496e-07 1.24496e-07
1.24496e-07 1.24496e-07 1.24496e-07 1.24496e-07 1.24496e-07 1.24496e-07 1.24496e-07 1.24496e-07 1.24496e-07 1.24496e-07
1.24496e-07 1.24496e-07 1.24496e-07 1.24496e-07 1.24496e-07 1.24496e-07 1.24496e-07 1.24496e-07 1.24496e-07 1.24496e-07
1.24496e-07 1.24496e-07 1.24496e-07 1.24496e-07 1.24496e-07 1.24496e-07 1.24496e-07 1.24496e-07 1.24496e-07 1.24496e-07
1.24496e-07 1.24496e-07 1.24496e-07 1.24496e-07 1.24496e-07 1.24496e-07 1.24496e-07 1.24496e-07 1.24496e-07 1.24496e-07
1.24496e-07 1.24496e-07 1.24496e-07 1.24496e-07 1.24496e-07 1.24496e-07 1.24496e-07 1.24496e-07 1.24496e-07 1.24496e-07
1.24496e-07 1.24496e-07 1.24496e-07 1.24496e-07 1.24496e-07 1.24496e-07 1.24496e-07 1.24496e-07 1.24496e-07 1.24496e-07
1.24496e-07 1.24496e-07 1.24496e-07 1.24496e-07 
Cz 1 385 float
0.05 0.05 0.05 0.05 0.05 0.05 0.05 0.05 0.05 0.05 0.05
0.05 0.05 0.05 0.05 0.05 0.05 0.05 0.05 0.05 0.05
0.05 0.05 0.05 0.05 0.05 0.05 0.05 0.05 0.05 0.05
0.05 0.05 0.05 0.05 0.05 0.05 0.05 0.05 0.05 0.05
0.05 0.05 0.05 0.05 0.05 0.05 0.05 0.05 0.05 0.05
0.05 0.05 0.05 0.05 0.05 0.05 0.05 0.05 0.05 0.05
0.05 0.05 0.05 0.05 0.05 0.05 0.05 0.05 0.05 0.05
0.05 0.05 0.05 0.05 0.05 0.05 0.05 0.05 0.05 0.05
0.05 0.05 0.05 0.05 0.05 0.05 0.05 0.05 0.05 0.05
0.05 0.05 0.05 0.05 0.05 0.05 0.05 0.05 0.05 0.05
0.05 0.05 0.05 0.05 0.05 0.05 0.05 0.05 0.05 0.05
0.05 0.05 0.05 0.05 0.05 0.05 0.05 0.05 0.05 0.05
0.05 0.05 0.05 0.05 0.05 0.05 0.05 0.05 0.05 0.05
0.05 0.05 0.05 0.05 0.05 0.05 0.05 0.05 0.05 0.05
0.05 0.05 0.05 0.05 0.05 0.05 0.05 0.05 0.05 0.05
0.05 0.05 0.05 0.05 0.05 0.05 0.05 0.05 0.05 0.05
0.05 0.05 0.05 0.05 0.05 0.05 0.05 0.05 0.05 0.05
0.05 0.05 0.05 0.05 0.05 0.05 0.05 0.05 0.05 0.05
0.05 0.05 0.05 0.05 0.05 0.05 0.05 0.05 0.05 0.05
0.05 0.05 0.05 0.05 0.05 0.05 0.05 0.05 0.05 0.05
0.05 0.05 0.05 0.05 0.05 0.05 0.05 0.05 0.05 0.05
0.05 0.05 0.05 0.05 0.05 0.05 0.05 0.05 0.05 0.05
0.05 0.05 0.05 0.05 0.05 0.05 0.05 0.05 0.05 0.05
0.05 0.05 0.05 0.05 0.05 0.05 0.05 0.05 0.05 0.05
0.05 0.05 0.05 0.05 0.05 0.05 0.05 0.05 0.05 0.05
0.05 0.05 0.05 0.05 0.05 0.05 0.05 0.05 0.05 0.05
0.05 0.05 0.05 0.05 0.05 0.05 0.05 0.05 0.05 0.05
0.05 0.05 0.05 0.05 0.05 0.05 0.05 0.05 0.05 0.05
0.05 0.05 0.05 0.05 0.05 0.05 0.05 0.05 0.05 0.05
0.05 0.05 0.05 0.05 0.05 0.05 0.05 0.05 0.05 0.05
0.05 0.05 0.05 0.05 0.05 0.05 0.05 0.05 0.05 0.05
0.05 0.05 0.05 0.05 0.05 0.05 0.05 0.05 0.05 0.05
0.05 0.05 0.05 0.05 0.05 0.05 0.05 0.05 0.05 0.05
0.05 0.05 0.05 0.05 0.05 0.05 0.05 0.05 0.05 0.05
0.05 0.05 0.05 0.05 0.05 0.05 0.05 0.05 0.05 0.05
0.05 0.05 0.05 0.05 0.05 0.05 0.05 0.05 0.05 0.05
0.05 0.05 0.05 0.05 0.05 0.05 0.05 0.05 0.05 0.05
0.05 0.05 0.05 0.05 0.05 0.05 0.05 0.05 0.05 0.05
0.05 0.05 0.05 0.05 
p 1 385 float
21.2727 21.2727 21.2727 21.2727 21.2727 21.2727 21.2727 21.2727 21.2727 21.2727 21.2727
21.2727 21.2727 21.2727 21.2727 21.2727 21.2727 21.2727 21.2727 21.2727 21.2727
21.2727 21.2727 21.2727 21.2727 21.2727 21.2726 21.2726 21.2726 21.2726 21.2726
21.2726 21.2726 21.2726 21.2726 21.2725 21.2725 21.2725 21.2725 21.2725 21.2725
21.2725 21.2724 21.2724 21.2724 21.2724 21.2723 21.2723 21.2723 21.2723 21.2722
21.2722 21.2722 21.2722 21.2721 21.2721 21.2721 21.272 21.272 21.2719 21.2719
21.2719 21.2718 21.2718 21.2717 21.2717 21.2716 21.2716 21.2715 21.2715 21.2714
21.2713 21.2713 21.2712 21.2711 21.2711 21.271 21.2709 21.2708 21.2707 21.2706
21.2706 21.2705 21.2704 21.2703 21.2702 21.2701 21.2699 21.2698 21.2697 21.2696
21.2695 21.2693 21.2692 21.269 21.2689 21.2687 21.2686 21.2684 21.2682 21.2681
21.2679 21.2677 21.2675 21.2673 21.2671 21.2669 21.2667 21.2664 21.2662 21.266
21.2657 21.2654 21.2652 21.2649 21.2646 21.2643 21.264 21.2637 21.2633 21.263
21.2627 21.2623 21.2619 21.2615 21.2611 21.2607 21.2603 21.2598 21.2594 21.2589
21.2584 21.2579 21.2574 21.2569 21.2563 21.2558 21.2552 21.2546 21.2539 21.2533
21.2526 21.2519 21.2512 21.2505 21.2497 21.249 21.2482 21.2473 21.2465 21.2456
21.2447 21.2437 21.2428 21.2418 21.2407 21.2397 21.2386 21.2374 21.2363 21.235
21.2338 21.2325 21.2312 21.2298 21.2284 21.227 21.2255 21.2239 21.2223 21.2207
21.219 21.2173 21.2155 21.2136 21.2117 21.2098 21.2077 21.2056 21.2035 21.2013
21.199 21.1966 21.1942 21.1917 21.1891 21.1865 21.1837 21.1809 21.178 21.175
21.1719 21.1687 21.1655 21.1621 21.1586 21.1551 21.1514 21.1476 21.1437 21.1397
21.1355 21.1313 21.1269 21.1224 21.1177 21.1129 21.108 21.103 21.0977 21.0924
21.0869 21.0812 21.0753 21.0693 21.0631 21.0568 21.0502 21.0435 21.0365 21.0294
21.0221 21.0146 21.0068 20.9988 20.9907 20.9822 20.9736 20.9647 20.9556 20.9462
20.9365 20.9266 20.9164 20.906 20.8952 20.8842 20.8729 20.8612 20.8493 20.837
20.8245 20.8116 20.7983 20.7847 20.7708 20.7565 20.7418 20.7268 20.7113 20.6955
20.6793 20.6627 20.6457 20.6282 20.6103 20.592 20.5733 20.5541 20.5345 20.5143
20.4938 20.4727 20.4511 20.4291 20.4066 20.3835 20.36 20.3359 20.3113 20.2861
20.2605 20.2342 20.2075 20.1801 20.1523 20.1238 20.0948 20.0652 20.035 20.0042
19.9729 19.941 19.9084 19.8753 19.8416 19.8073 19.7723 19.7368 19.7007 19.664
19.6266 19.5887 19.5502 19.511 19.4713 19.431 19.3901 19.3486 19.3066 19.2639
19.2207 19.177 19.1327 19.0878 19.0424 18.9965 18.95 18.9031 18.8556 18.8077
18.7593 18.7104 18.6611 18.6113 18.5611 18.5105 18.4595 18.4081 18.3564 18.3044
18.252 18.1993 18.1463 18.0931 18.0396 17.9859 17.932 17.878 17.8237 17.7694
17.7149 17.6604 17.6057 17.5511 17.4965 17.4419 17.3873 17.3328 17.2785 17.2242
17.1702 17.1163 17.0627 17.0093 16.9563 16.9035 16.8512 16.7992 16.7477 16.6967
16.6462 16.5962 16.5468 16.4981 16.45 16.4027 16.3561 16.3103 16.2654 16.2214
16.1783 16.1363 16.0953 16.0554 16.0167 15.9792 15.9429 15.9081 15.8746 15.8426
15.8121 15.7832 15.7561 15.7307 15.7071 15.6854 15.6658 15.6482 15.6329 15.6198
15.6091 15.6009 15.5953 15.5925 
k 1 385 float
0.00108 0.00108 0.00108 0.00108 0.00108 0.00108 0.00108 0.00108 0.00108 0.00108 0.00108
0.00108 0.00108 0.00108 0.00108 0.00108 0.00108 0.00108 0.00108 0.00108 0.00108
0.00108 0.00108 0.00108 0.00108 0.00108 0.00108 0.00108 0.00108 0.00108 0.00108
0.00108 0.00108 0.00108 0.00108 0.00108 0.00108 0.00108 0.00108 0.00108 0.00108
0.00108 0.00108 0.00108 0.00108 0.00108 0.00108 0.00108 0.00108 0.00108 0.00108
0.00108 0.00108 0.00108 0.00108 0.00108 0.00108 0.00108 0.00108 0.00108 0.00108
0.00108 0.00108 0.00108 0.00108 0.00108 0.00108 0.00108 0.00108 0.00108 0.00108
0.00108 0.00108 0.00108 0.00108 0.00108 0.00108 0.00108 0.00108 0.00108 0.00108
0.00108 0.00108 0.00108 0.00108 0.00108 0.00108 0.00108 0.00108 0.00108 0.00108
0.00108 0.00108 0.00108 0.00108 0.00108 0.00108 0.00108 0.00108 0.00108 0.00108
0.00108 0.00108 0.00108 0.00108 0.00108 0.00108 0.00108 0.00108 0.00108 0.00108
0.00108 0.00108 0.00108 0.00108 0.00108 0.00108 0.00108 0.00108 0.00108 0.00108
0.00108 0.00108 0.00108 0.00108 0.00108 0.00108 0.00108 0.00108 0.00108 0.00108
0.00108 0.00108 0.00108 0.00108 0.00108 0.00108 0.00108 0.00108 0.00108 0.00108
0.00108 0.00108 0.00108 0.00108 0.00108 0.00108 0.00108 0.00108 0.00108 0.00108
0.00108 0.00108 0.00108 0.00108 0.00108 0.00108 0.00108 0.00108 0.00108 0.00108
0.00108 0.00108 0.00108 0.00108 0.00108 0.00108 0.00108 0.00108 0.00108 0.00108
0.00108 0.00108 0.00108 0.00108 0.00108 0.00108 0.00108 0.00108 0.00108 0.00108
0.00108 0.00108 0.00108 0.00108 0.00108 0.00108 0.00108 0.00108 0.00108 0.00108
0.00108 0.00108 0.00108 0.00108 0.00108 0.00108 0.00108 0.00108 0.00108 0.00108
0.00108 0.00108 0.00108 0.00108 0.00108 0.00108 0.00108 0.00108 0.00108 0.00108
0.00108 0.00108 0.00108 0.00108 0.00108 0.00108 0.00108 0.00108 0.00108 0.00108
0.00108 0.00108 0.00108 0.00108 0.00108 0.00108 0.00108 0.00108 0.00108 0.00108
0.00108 0.00108 0.00108 0.00108 0.00108 0.00108 0.00108 0.00108 0.00108 0.00108
0.00108 0.00108 0.00108 0.00108 0.00108 0.00108 0.00108 0.00108 0.00108 0.00108
0.00108 0.00108 0.00108 0.00108 0.00108 0.00108 0.00108 0.00108 0.00108 0.00108
0.00108 0.00108 0.00108 0.00108 0.00108 0.00108 0.00108 0.00108 0.00108 0.00108
0.00108 0.00108 0.00108 0.00108 0.00108 0.00108 0.00108 0.00108 0.00108 0.00108
0.00108 0.00108 0.00108 0.00108 0.00108 0.00108 0.00108 0.00108 0.00108 0.00108
0.00108 0.00108 0.00108 0.00108 0.00108 0.00108 0.00108 0.00108 0.00108 0.00108
0.00108 0.00108 0.00108 0.00108 0.00108 0.00108 0.00108 0.00108 0.00108 0.00108
0.00108 0.00108 0.00108 0.00108 0.00108 0.00108 0.00108 0.00108 0.00108 0.00108
0.00108 0.00108 0.00108 0.00108 0.00108 0.00108 0.00108 0.00108 0.00108 0.00108
0.00108 0.00108 0.00108 0.00108 0.00108 0.00108 0.00108 0.00108 0.00108 0.00108
0.00108 0.00108 0.00108 0.00108 0.00108 0.00108 0.00108 0.00108 0.00108 0.00108
0.00108 0.00108 0.00108 0.00108 0.00108 0.00108 0.00108 0.00108 0.00108 0.00108
0.00108 0.00108 0.00108 0.00108 0.00108 0.00108 0.00108 0.00108 0.00108 0.00108
0.00108 0.00108 0.00108 0.00108 0.00108 0.00108 0.00108 0.00108 0.00108 0.00108
0.00108 0.00108 0.00108 0.00108 
omega 1 385 float
8675 8675 8675 8675 8675 8675 8675 8675 8675 8675 8675
8675 8675 8675 8675 8675 8675 8675 8675 8675 8675
8675 8675 8675 8675 8675 8675 8675 8675 8675 8675
8675 8675 8675 8675 8675 8675 8675 8675 8675 8675
8675 8675 8675 8675 8675 8675 8675 8675 8675 8675
8675 8675 8675 8675 8675 8675 8675 8675 8675 8675
8675 8675 8675 8675 8675 8675 8675 8675 8675 8675
8675 8675 8675 8675 8675 8675 8675 8675 8675 8675
8675 8675 8675 8675 8675 8675 8675 8675 8675 8675
8675 8675 8675 8675 8675 8675 8675 8675 8675 8675
8675 8675 8675 8675 8675 8675 8675 8675 8675 8675
8675 8675 8675 8675 8675 8675 8675 8675 8675 8675
8675 8675 8675 8675 8675 8675 8675 8675 8675 8675
8675 8675 8675 8675 8675 8675 8675 8675 8675 8675
8675 8675 8675 8675 8675 8675 8675 8675 8675 8675
8675 8675 8675 8675 8675 8675 8675 8675 8675 8675
8675 8675 8675 8675 8675 8675 8675 8675 8675 8675
8675 8675 8675 8675 8675 8675 8675 8675 8675 8675
8675 8675 8675 8675 8675 8675 8675 8675 8675 8675
8675 8675 8675 8675 8675 8675 8675 8675 8675 8675
8675 8675 8675 8675 8675 8675 8675 8675 8675 8675
8675 8675 8675 8675 8675 8675 8675 8675 8675 8675
8675 8675 8675 8675 8675 8675 8675 8675 8675 8675
8675 8675 8675 8675 8675 8675 8675 8675 8675 8675
8675 8675 8675 8675 8675 8675 8675 8675 8675 8675
8675 8675 8675 8675 8675 8675 8675 8675 8675 8675
8675 8675 8675 8675 8675 8675 8675 8675 8675 8675
8675 8675 8675 8675 8675 8675 8675 8675 8675 8675
8675 8675 8675 8675 8675 8675 8675 8675 8675 8675
8675 8675 8675 8675 8675 8675 8675 8675 8675 8675
8675 8675 8675 8675 8675 8675 8675 8675 8675 8675
8675 8675 8675 8675 8675 8675 8675 8675 8675 8675
8675 8675 8675 8675 8675 8675 8675 8675 8675 8675
8675 8675 8675 8675 8675 8675 8675 8675 8675 8675
8675 8675 8675 8675 8675 8675 8675 8675 8675 8675
8675 8675 8675 8675 8675 8675 8675 8675 8675 8675
8675 8675 8675 8675 8675 8675 8675 8675 8675 8675
8675 8675 8675 8675 8675 8675 8675 8675 8675 8675
8675 8675 8675 8675 
Cx 1 385 float
-0.333333 -0.333333 -0.333333 -0.333333 -0.333333 -0.333333 -0.333333 -0.333333 -0.333333 -0.333333 -0.333333
-0.333333 -0.333333 -0.333333 -0.333333 -0.333333 -0.333333 -0.333333 -0.333333 -0.333333 -0.333333
-0.333333 -0.333333 -0.333333 -0.333333 -0.333333 -0.333333 -0.333333 -0.333333 -0.333333 -0.333333
-0.333333 -0.333333 -0.333333 -0.333333 -0.333333 -0.333333 -0.333333 -0.333333 -0.333333 -0.333333
-0.333333 -0.333333 -0.333333 -0.333333 -0.333333 -0.333333 -0.333333 -0.333333 -0.333333 -0.333333
-0.333333 -0.333333 -0.333333 -0.333333 -0.333333 -0.333333 -0.333333 -0.333333 -0.333333 -0.333333
-0.333333 -0.333333 -0.333333 -0.333333 -0.333333 -0.333333 -0.333333 -0.333333 -0.333333 -0.333333
-0.333333 -0.333333 -0.333333 -0.333333 -0.333333 -0.333333 -0.333333 -0.333333 -0.333333 -0.333333
-0.333333 -0.333333 -0.333333 -0.333333 -0.333333 -0.333333 -0.333333 -0.333333 -0.333333 -0.333333
-0.333333 -0.333333 -0.333333 -0.333333 -0.333333 -0.333333 -0.333333 -0.333333 -0.333333 -0.333333
-0.333333 -0.333333 -0.333333 -0.333333 -0.333333 -0.333333 -0.333333 -0.333333 -0.333333 -0.333333
-0.333333 -0.333333 -0.333333 -0.333333 -0.333333 -0.333333 -0.333333 -0.333333 -0.333333 -0.333333
-0.333333 -0.333333 -0.333333 -0.333333 -0.333333 -0.333333 -0.333333 -0.333333 -0.333333 -0.333333
-0.333333 -0.333333 -0.333333 -0.333333 -0.333333 -0.333333 -0.333333 -0.333333 -0.333333 -0.333333
-0.333333 -0.333333 -0.333333 -0.333333 -0.333333 -0.333333 -0.333333 -0.333333 -0.333333 -0.333333
-0.333333 -0.333333 -0.333333 -0.333333 -0.333333 -0.333333 -0.333333 -0.333333 -0.333333 -0.333333
-0.333333 -0.333333 -0.333333 -0.333333 -0.333333 -0.333333 -0.333333 -0.333333 -0.333333 -0.333333
-0.333333 -0.333333 -0.333333 -0.333333 -0.333333 -0.333333 -0.333333 -0.333333 -0.333333 -0.333333
-0.333333 -0.333333 -0.333333 -0.333333 -0.333333 -0.333333 -0.333333 -0.333333 -0.333333 -0.333333
-0.333333 -0.333333 -0.333333 -0.333333 -0.333333 -0.333333 -0.333333 -0.333333 -0.333333 -0.333333
-0.333333 -0.333333 -0.333333 -0.333333 -0.333333 -0.333333 -0.333333 -0.333333 -0.333333 -0.333333
-0.333333 -0.333333 -0.333333 -0.333333 -0.333333 -0.333333 -0.333333 -0.333333 -0.333333 -0.333333
-0.333333 -0.333333 -0.333333 -0.333333 -0.333333 -0.333333 -0.333333 -0.333333 -0.333333 -0.333333
-0.333333 -0.333333 -0.333333 -0.333333 -0.333333 -0.333333 -0.333333 -0.333333 -0.333333 -0.333333
-0.333333 -0.333333 -0.333333 -0.333333 -0.333333 -0.333333 -0.333333 -0.333333 -0.333333 -0.333333
-0.333333 -0.333333 -0.333333 -0.333333 -0.333333 -0.333333 -0.333333 -0.333333 -0.333333 -0.333333
-0.333333 -0.333333 -0.333333 -0.333333 -0.333333 -0.333333 -0.333333 -0.333333 -0.333333 -0.333333
-0.333333 -0.333333 -0.333333 -0.333333 -0.333333 -0.333333 -0.333333 -0.333333 -0.333333 -0.333333
-0.333333 -0.333333 -0.333333 -0.333333 -0.333333 -0.333333 -0.333333 -0.333333 -0.333333 -0.333333
-0.333333 -0.333333 -0.333333 -0.333333 -0.333333 -0.333333 -0.333333 -0.333333 -0.333333 -0.333333
-0.333333 -0.333333 -0.333333 -0.333333 -0.333333 -0.333333 -0.333333 -0.333333 -0.333333 -0.333333
-0.333333 -0.333333 -0.333333 -0.333333 -0.333333 -0.333333 -0.333333 -0.333333 -0.333333 -0.333333
-0.333333 -0.333333 -0.333333 -0.333333 -0.333333 -0.333333 -0.333333 -0.333333 -0.333333 -0.333333
-0.333333 -0.333333 -0.333333 -0.333333 -0.333333 -0.333333 -0.333333 -0.333333 -0.333333 -0.333333
-0.333333 -0.333333 -0.333333 -0.333333 -0.333333 -0.333333 -0.333333 -0.333333 -0.333333 -0.333333
-0.333333 -0.333333 -0.333333 -0.333333 -0.333333 -0.333333 -0.333333 -0.333333 -0.333333 -0.333333
-0.333333 -0.333333 -0.333333 -0.333333 -0.333333 -0.333333 -0.333333 -0.333333 -0.333333 -0.333333
-0.333333 -0.333333 -0.333333 -0.333333 -0.333333 -0.333333 -0.333333 -0.333333 -0.333333 -0.333333
-0.333333 -0.333333 -0.333333 -0.333333 
yPlus 1 385 float
0 0 0 0 0 0 0 0 0 0 0
0 0 0 0 0 0 0 0 0 0
0 0 0 0 0 0 0 0 0 0
0 0 0 0 0 0 0 0 0 0
0 0 0 0 0 0 0 0 0 0
0 0 0 0 0 0 0 0 0 0
0 0 0 0 0 0 0 0 0 0
0 0 0 0 0 0 0 0 0 0
0 0 0 0 0 0 0 0 0 0
0 0 0 0 0 0 0 0 0 0
0 0 0 0 0 0 0 0 0 0
0 0 0 0 0 0 0 0 0 0
0 0 0 0 0 0 0 0 0 0
0 0 0 0 0 0 0 0 0 0
0 0 0 0 0 0 0 0 0 0
0 0 0 0 0 0 0 0 0 0
0 0 0 0 0 0 0 0 0 0
0 0 0 0 0 0 0 0 0 0
0 0 0 0 0 0 0 0 0 0
0 0 0 0 0 0 0 0 0 0
0 0 0 0 0 0 0 0 0 0
0 0 0 0 0 0 0 0 0 0
0 0 0 0 0 0 0 0 0 0
0 0 0 0 0 0 0 0 0 0
0 0 0 0 0 0 0 0 0 0
0 0 0 0 0 0 0 0 0 0
0 0 0 0 0 0 0 0 0 0
0 0 0 0 0 0 0 0 0 0
0 0 0 0 0 0 0 0 0 0
0 0 0 0 0 0 0 0 0 0
0 0 0 0 0 0 0 0 0 0
0 0 0 0 0 0 0 0 0 0
0 0 0 0 0 0 0 0 0 0
0 0 0 0 0 0 0 0 0 0
0 0 0 0 0 0 0 0 0 0
0 0 0 0 0 0 0 0 0 0
0 0 0 0 0 0 0 0 0 0
0 0 0 0 0 0 0 0 0 0
0 0 0 0 
wallShearStress 3 385 float
0 0 0 0 0 0 0 0 0 0 0
0 0 0 0 0 0 0 0 0 0
0 0 0 0 0 0 0 0 0 0
0 0 0 0 0 0 0 0 0 0
0 0 0 0 0 0 0 0 0 0
0 0 0 0 0 0 0 0 0 0
0 0 0 0 0 0 0 0 0 0
0 0 0 0 0 0 0 0 0 0
0 0 0 0 0 0 0 0 0 0
0 0 0 0 0 0 0 0 0 0
0 0 0 0 0 0 0 0 0 0
0 0 0 0 0 0 0 0 0 0
0 0 0 0 0 0 0 0 0 0
0 0 0 0 0 0 0 0 0 0
0 0 0 0 0 0 0 0 0 0
0 0 0 0 0 0 0 0 0 0
0 0 0 0 0 0 0 0 0 0
0 0 0 0 0 0 0 0 0 0
0 0 0 0 0 0 0 0 0 0
0 0 0 0 0 0 0 0 0 0
0 0 0 0 0 0 0 0 0 0
0 0 0 0 0 0 0 0 0 0
0 0 0 0 0 0 0 0 0 0
0 0 0 0 0 0 0 0 0 0
0 0 0 0 0 0 0 0 0 0
0 0 0 0 0 0 0 0 0 0
0 0 0 0 0 0 0 0 0 0
0 0 0 0 0 0 0 0 0 0
0 0 0 0 0 0 0 0 0 0
0 0 0 0 0 0 0 0 0 0
0 0 0 0 0 0 0 0 0 0
0 0 0 0 0 0 0 0 0 0
0 0 0 0 0 0 0 0 0 0
0 0 0 0 0 0 0 0 0 0
0 0 0 0 0 0 0 0 0 0
0 0 0 0 0 0 0 0 0 0
0 0 0 0 0 0 0 0 0 0
0 0 0 0 0 0 0 0 0 0
0 0 0 0 0 0 0 0 0 0
0 0 0 0 0 0 0 0 0 0
0 0 0 0 0 0 0 0 0 0
0 0 0 0 0 0 0 0 0 0
0 0 0 0 0 0 0 0 0 0
0 0 0 0 0 0 0 0 0 0
0 0 0 0 0 0 0 0 0 0
0 0 0 0 0 0 0 0 0 0
0 0 0 0 0 0 0 0 0 0
0 0 0 0 0 0 0 0 0 0
0 0 0 0 0 0 0 0 0 0
0 0 0 0 0 0 0 0 0 0
0 0 0 0 0 0 0 0 0 0
0 0 0 0 0 0 0 0 0 0
0 0 0 0 0 0 0 0 0 0
0 0 0 0 0 0 0 0 0 0
0 0 0 0 0 0 0 0 0 0
0 0 0 0 0 0 0 0 0 0
0 0 0 0 0 0 0 0 0 0
0 0 0 0 0 0 0 0 0 0
0 0 0 0 0 0 0 0 0 0
0 0 0 0 0 0 0 0 0 0
0 0 0 0 0 0 0 0 0 0
0 0 0 0 0 0 0 0 0 0
0 0 0 0 0 0 0 0 0 0
0 0 0 0 0 0 0 0 0 0
0 0 0 0 0 0 0 0 0 0
0 0 0 0 0 0 0 0 0 0
0 0 0 0 0 0 0 0 0 0
0 0 0 0 0 0 0 0 0 0
0 0 0 0 0 0 0 0 0 0
0 0 0 0 0 0 0 0 0 0
0 0 0 0 0 0 0 0 0 0
0 0 0 0 0 0 0 0 0 0
0 0 0 0 0 0 0 0 0 0
0 0 0 0 0 0 0 0 0 0
0 0 0 0 0 0 0 0 0 0
0 0 0 0 0 0 0 0 0 0
0 0 0 0 0 0 0 0 0 0
0 0 0 0 0 0 0 0 0 0
0 0 0 0 0 0 0 0 0 0
0 0 0 0 0 0 0 0 0 0
0 0 0 0 0 0 0 0 0 0
0 0 0 0 0 0 0 0 0 0
0 0 0 0 0 0 0 0 0 0
0 0 0 0 0 0 0 0 0 0
0 0 0 0 0 0 0 0 0 0
0 0 0 0 0 0 0 0 0 0
0 0 0 0 0 0 0 0 0 0
0 0 0 0 0 0 0 0 0 0
0 0 0 0 0 0 0 0 0 0
0 0 0 0 0 0 0 0 0 0
0 0 0 0 0 0 0 0 0 0
0 0 0 0 0 0 0 0 0 0
0 0 0 0 0 0 0 0 0 0
0 0 0 0 0 0 0 0 0 0
0 0 0 0 0 0 0 0 0 0
0 0 0 0 0 0 0 0 0 0
0 0 0 0 0 0 0 0 0 0
0 0 0 0 0 0 0 0 0 0
0 0 0 0 0 0 0 0 0 0
0 0 0 0 0 0 0 0 0 0
0 0 0 0 0 0 0 0 0 0
0 0 0 0 0 0 0 0 0 0
0 0 0 0 0 0 0 0 0 0
0 0 0 0 0 0 0 0 0 0
0 0 0 0 0 0 0 0 0 0
0 0 0 0 0 0 0 0 0 0
0 0 0 0 0 0 0 0 0 0
0 0 0 0 0 0 0 0 0 0
0 0 0 0 0 0 0 0 0 0
0 0 0 0 0 0 0 0 0 0
0 0 0 0 0 0 0 0 0 0
0 0 0 0 0 0 0 0 0 0
0 0 0 0 0 0 0 0 0 0
0 0 0 0 0 0 0 0 0 0
0 0 0 0 0 0 0 0 0 0
0 0 0 0 
U 3 385 float
69.4 0 0 69.4 0 0 69.4 0 0 69.4 0
0 69.4 0 0 69.4 0 0 69.4 0 0
69.4 0 0 69.4 0 0 69.4 0 0 69.4
0 0 69.4 0 0 69.4 0 0 69.4 0
0 69.4 0 0 69.4 0 0 69.4 0 0
69.4 0 0 69.4 0 0 69.4 0 0 69.4
0 0 69.4 0 0 69.4 0 0 69.4 0
0 69.4 0 0 69.4 0 0 69.4 0 0
69.4 0 0 69.4 0 0 69.4 0 0 69.4
0 0 69.4 0 0 69.4 0 0 69.4 0
0 69.4 0 0 69.4 0 0 69.4 0 0
69.4 0 0 69.4 0 0 69.4 0 0 69.4
0 0 69.4 0 0 69.4 0 0 69.4 0
0 69.4 0 0 69.4 0 0 69.4 0 0
69.4 0 0 69.4 0 0 69.4 0 0 69.4
0 0 69.4 0 0 69.4 0 0 69.4 0
0 69.4 0 0 69.4 0 0 69.4 0 0
69.4 0 0 69.4 0 0 69.4 0 0 69.4
0 0 69.4 0 0 69.4 0 0 69.4 0
0 69.4 0 0 69.4 0 0 69.4 0 0
69.4 0 0 69.4 0 0 69.4 0 0 69.4
0 0 69.4 0 0 69.4 0 0 69.4 0
0 69.4 0 0 69.4 0 0 69.4 0 0
69.4 0 0 69.4 0 0 69.4 0 0 69.4
0 0 69.4 0 0 69.4 0 0 69.4 0
0 69.4 0 0 69.4 0 0 69.4 0 0
69.4 0 0 69.4 0 0 69.4 0 0 69.4
0 0 69.4 0 0 69.4 0 0 69.4 0
0 69.4 0 0 69.4 0 0 69.4 0 0
69.4 0 0 69.4 0 0 69.4 0 0 69.4
0 0 69.4 0 0 69.4 0 0 69.4 0
0 69.4 0 0 69.4 0 0 69.4 0 0
69.4 0 0 69.4 0 0 69.4 0 0 69.4
0 0 69.4 0 0 69.4 0 0 69.4 0
0 69.4 0 0 69.4 0 0 69.4 0 0
69.4 0 0 69.4 0 0 69.4 0 0 69.4
0 0 69.4 0 0 69.4 0 0 69.4 0
0 69.4 0 0 69.4 0 0 69.4 0 0
69.4 0 0 69.4 0 0 69.4 0 0 69.4
0 0 69.4 0 0 69.4 0 0 69.4 0
0 69.4 0 0 69.4 0 0 69.4 0 0
69.4 0 0 69.4 0 0 69.4 0 0 69.4
0 0 69.4 0 0 69.4 0 0 69.4 0
0 69.4 0 0 69.4 0 0 69.4 0 0
69.4 0 0 69.4 0 0 69.4 0 0 69.4
0 0 69.4 0 0 69.4 0 0 69.4 0
0 69.4 0 0 69.4 0 0 69.4 0 0
69.4 0 0 69.4 0 0 69.4 0 0 69.4
0 0 69.4 0 0 69.4 0 0 69.4 0
0 69.4 0 0 69.4 0 0 69.4 0 0
69.4 0 0 69.4 0 0 69.4 0 0 69.4
0 0 69.4 0 0 69.4 0 0 69.4 0
0 69.4 0 0 69.4 0 0 69.4 0 0
69.4 0 0 69.4 0 0 69.4 0 0 69.4
0 0 69.4 0 0 69.4 0 0 69.4 0
0 69.4 0 0 69.4 0 0 69.4 0 0
69.4 0 0 69.4 0 0 69.4 0 0 69.4
0 0 69.4 0 0 69.4 0 0 69.4 0
0 69.4 0 0 69.4 0 0 69.4 0 0
69.4 0 0 69.4 0 0 69.4 0 0 69.4
0 0 69.4 0 0 69.4 0 0 69.4 0
0 69.4 0 0 69.4 0 0 69.4 0 0
69.4 0 0 69.4 0 0 69.4 0 0 69.4
0 0 69.4 0 0 69.4 0 0 69.4 0
0 69.4 0 0 69.4 0 0 69.4 0 0
69.4 0 0 69.4 0 0 69.4 0 0 69.4
0 0 69.4 0 0 69.4 0 0 69.4 0
0 69.4 0 0 69.4 0 0 69.4 0 0
69.4 0 0 69.4 0 0 69.4 0 0 69.4
0 0 69.4 0 0 69.4 0 0 69.4 0
0 69.4 0 0 69.4 0 0 69.4 0 0
69.4 0 0 69.4 0 0 69.4 0 0 69.4
0 0 69.4 0 0 69.4 0 0 69.4 0
0 69.4 0 0 69.4 0 0 69.4 0 0
69.4 0 0 69.4 0 0 69.4 0 0 69.4
0 0 69.4 0 0 69.4 0 0 69.4 0
0 69.4 0 0 69.4 0 0 69.4 0 0
69.4 0 0 69.4 0 0 69.4 0 0 69.4
0 0 69.4 0 0 69.4 0 0 69.4 0
0 69.4 0 0 69.4 0 0 69.4 0 0
69.4 0 0 69.4 0 0 69.4 0 0 69.4
0 0 69.4 0 0 69.4 0 0 69.4 0
0 69.4 0 0 69.4 0 0 69.4 0 0
69.4 0 0 69.4 0 0 69.4 0 0 69.4
0 0 69.4 0 0 69.4 0 0 69.4 0
0 69.4 0 0 69.4 0 0 69.4 0 0
69.4 0 0 69.4 0 0 69.4 0 0 69.4
0 0 69.4 0 0 69.4 0 0 69.4 0
0 69.4 0 0 69.4 0 0 69.4 0 0
69.4 0 0 69.4 0 0 69.4 0 0 69.4
0 0 69.4 0 0 69.4 0 0 69.4 0
0 69.4 0 0 69.4 0 0 69.4 0 0
69.4 0 0 69.4 0 0 69.4 0 0 69.4
0 0 69.4 0 0 69.4 0 0 69.4 0
0 69.4 0 0 69.4 0 0 69.4 0 0
69.4 0 0 69.4 0 0 69.4 0 0 69.4
0 0 69.4 0 0 69.4 0 0 69.4 0
0 69.4 0 0 69.4 0 0 69.4 0 0
69.4 0 0 69.4 0 0 69.4 0 0 69.4
0 0 69.4 0 0 69.4 0 0 69.4 0
0 69.4 0 0 69.4 0 0 69.4 0 0
69.4 0 0 69.4 0 0 69.4 0 0 69.4
0 0 69.4 0 0 69.4 0 0 69.4 0
0 69.4 0 0 69.4 0 0 69.4 0 0
69.4 0 0 69.4 0 0 69.4 0 0 69.4
0 0 69.4 0 0 69.4 0 0 69.4 0
0 69.4 0 0 69.4 0 0 69.4 0 0
69.4 0 0 69.4 0 0 69.4 0 0 69.4
0 0 69.4 0 0 69.4 0 0 69.4 0
0 69.4 0 0 69.4 0 0 69.4 0 0
69.4 0 0 69.4 0 0 69.4 0 0 69.4
0 0 69.4 0 0 69.4 0 0 69.4 0
0 69.4 0 0 69.4 0 0 69.4 0 0
69.4 0 0 69.4 0 0 69.4 0 0 69.4
0 0 69.4 0 0 69.4 0 0 69.4 0
0 69.4 0 0 
C 3 385 float
-0.333333 2.4654e-05 0.05 -0.333333 7.4331e-05 0.05 -0.333333 0.000124751 0.05 -0.333333 0.000175926
0.05 -0.333333 0.000227867 0.05 -0.333333 0.000280585 0.05 -0.333333 0.000334092 0.05
-0.333333 0.000388399 0.05 -0.333333 0.000443519 0.05 -0.333333 0.000499465 0.05 -0.333333
0.000556247 0.05 -0.333333 0.000613879 0.05 -0.333333 0.000672373 0.05 -0.333333 0.000731743
0.05 -0.333333 0.000792001 0.05 -0.333333 0.000853161 0.05 -0.333333 0.000915236 0.05
-0.333333 0.00097824 0.05 -0.333333 0.00104219 0.05 -0.333333 0.00110709 0.05 -0.333333
0.00117297 0.05 -0.333333 0.00123983 0.05 -0.333333 0.00130769 0.05 -0.333333 0.00137656
0.05 -0.333333 0.00144647 0.05 -0.333333 0.00151743 0.05 -0.333333 0.00158944 0.05
-0.333333 0.00166254 0.05 -0.333333 0.00173672 0.05 -0.333333 0.00181202 0.05 -0.333333
0.00188844 0.05 -0.333333 0.00196601 0.05 -0.333333 0.00204474 0.05 -0.333333 0.00212465
0.05 -0.333333 0.00220575 0.05 -0.333333 0.00228806 0.05 -0.333333 0.00237161 0.05
-0.333333 0.00245641 0.05 -0.333333 0.00254248 0.05 -0.333333 0.00262983 0.05 -0.333333
0.00271849 0.05 -0.333333 0.00280848 0.05 -0.333333 0.00289982 0.05 -0.333333 0.00299252
0.05 -0.333333 0.00308661 0.05 -0.333333 0.00318211 0.05 -0.333333 0.00327903 0.05
-0.333333 0.00337741 0.05 -0.333333 0.00347726 0.05 -0.333333 0.0035786 0.05 -0.333333
0.00368146 0.05 -0.333333 0.00378586 0.05 -0.333333 0.00389182 0.05 -0.333333 0.00399937
0.05 -0.333333 0.00410853 0.05 -0.333333 0.00421932 0.05 -0.333333 0.00433176 0.05
-0.333333 0.00444589 0.05 -0.333333 0.00456173 0.05 -0.333333 0.00467931 0.05 -0.333333
0.00479864 0.05 -0.333333 0.00491975 0.05 -0.333333 0.00504268 0.05 -0.333333 0.00516745
0.05 -0.333333 0.00529409 0.05 -0.333333 0.00542262 0.05 -0.333333 0.00555307 0.05
-0.333333 0.00568548 0.05 -0.333333 0.00581987 0.05 -0.333333 0.00595627 0.05 -0.333333
0.00609471 0.05 -0.333333 0.00623522 0.05 -0.333333 0.00637784 0.05 -0.333333 0.00652258
0.05 -0.333333 0.0066695 0.05 -0.333333 0.00681861 0.05 -0.333333 0.00696996 0.05
-0.333333 0.00712357 0.05 -0.333333 0.00727948 0.05 -0.333333 0.00743772 0.05 -0.333333
0.00759833 0.05 -0.333333 0.00776134 0.05 -0.333333 0.00792679 0.05 -0.333333 0.00809472
0.05 -0.333333 0.00826516 0.05 -0.333333 0.00843815 0.05 -0.333333 0.00861373 0.05
-0.333333 0.00879194 0.05 -0.333333 0.00897282 0.05 -0.333333 0.0091564 0.05 -0.333333
0.00934273 0.05 -0.333333 0.00953184 0.05 -0.333333 0.00972379 0.05 -0.333333 0.00991861
0.05 -0.333333 0.0101163 0.05 -0.333333 0.010317 0.05 -0.333333 0.0105207 0.05
-0.333333 0.0107275 0.05 -0.333333 0.0109373 0.05 -0.333333 0.0111503 0.05 -0.333333
0.0113665 0.05 -0.333333 0.0115859 0.05 -0.333333 0.0118085 0.05 -0.333333 0.0120346
0.05 -0.333333 0.012264 0.05 -0.333333 0.0124968 0.05 -0.333333 0.0127331 0.05
-0.333333 0.012973 0.05 -0.333333 0.0132164 0.05 -0.333333 0.0134635 0.05 -0.333333
0.0137143 0.05 -0.333333 0.0139688 0.05 -0.333333 0.0142272 0.05 -0.333333 0.0144894
0.05 -0.333333 0.0147555 0.05 -0.333333 0.0150256 0.05 -0.333333 0.0152998 0.05
-0.333333 0.015578 0.05 -0.333333 0.0158605 0.05 -0.333333 0.0161471 0.05 -0.333333
0.016438 0.05 -0.333333 0.0167333 0.05 -0.333333 0.0170331 0.05 -0.333333 0.0173373
0.05 -0.333333 0.017646 0.05 -0.333333 0.0179594 0.05 -0.333333 0.0182774 0.05
-0.333333 0.0186003 0.05 -0.333333 0.0189279 0.05 -0.333333 0.0192605 0.05 -0.333333
0.019598 0.05 -0.333333 0.0199406 0.05 -0.333333 0.0202883 0.05 -0.333333 0.0206412
0.05 -0.333333 0.0209994 0.05 -0.333333 0.0213629 0.05 -0.333333 0.0217319 0.05
-0.333333 0.0221064 0.05 -0.333333 0.0224866 0.05 -0.333333 0.0228724 0.05 -0.333333
0.023264 0.05 -0.333333 0.0236614 0.05 -0.333333 0.0240648 0.05 -0.333333 0.0244742
0.05 -0.333333 0.0248898 0.05 -0.333333 0.0253115 0.05 -0.333333 0.0257396 0.05
-0.333333 0.0261741 0.05 -0.333333 0.0266151 0.05 -0.333333 0.0270627 0.05 -0.333333
0.027517 0.05 -0.333333 0.027978 0.05 -0.333333 0.028446 0.05 -0.333333 0.028921
0.05 -0.333333 0.0294031 0.05 -0.333333 0.0298924 0.05 -0.333333 0.0303891 0.05
-0.333333 0.0308931 0.05 -0.333333 0.0314047 0.05 -0.333333 0.031924 0.05 -0.333333
0.032451 0.05 -0.333333 0.0329859 0.05 -0.333333 0.0335289 0.05 -0.333333 0.0340799
0.05 -0.333333 0.0346392 0.05 -0.333333 0.0352069 0.05 -0.333333 0.035783 0.05
-0.333333 0.0363678 0.05 -0.333333 0.0369614 0.05 -0.333333 0.0375638 0.05 -0.333333
0.0381752 0.05 -0.333333 0.0387958 0.05 -0.333333 0.0394256 0.05 -0.333333 0.0400649
0.05 -0.333333 0.0407138 0.05 -0.333333 0.0413724 0.05 -0.333333 0.0420408 0.05
-0.333333 0.0427192 0.05 -0.333333 0.0434078 0.05 -0.333333 0.0441067 0.05 -0.333333
0.044816 0.05 -0.333333 0.045536 0.05 -0.333333 0.0462667 0.05 -0.333333 0.0470084
0.05 -0.333333 0.0477611 0.05 -0.333333 0.0485251 0.05 -0.333333 0.0493006 0.05
-0.333333 0.0500877 0.05 -0.333333 0.0508865 0.05 -0.333333 0.0516973 0.05 -0.333333
0.0525202 0.05 -0.333333 0.0533555 0.05 -0.333333 0.0542032 0.05 -0.333333 0.0550637
0.05 -0.333333 0.055937 0.05 -0.333333 0.0568233 0.05 -0.333333 0.057723 0.05
-0.333333 0.0586361 0.05 -0.333333 0.0595629 0.05 -0.333333 0.0605035 0.05 -0.333333
0.0614582 0.05 -0.333333 0.0624272 0.05 -0.333333 0.0634107 0.05 -0.333333 0.0644089
0.05 -0.333333 0.0654221 0.05 -0.333333 0.0664504 0.05 -0.333333 0.0674941 0.05
-0.333333 0.0685534 0.05 -0.333333 0.0696286 0.05 -0.333333 0.0707198 0.05 -0.333333
0.0718274 0.05 -0.333333 0.0729516 0.05 -0.333333 0.0740926 0.05 -0.333333 0.0752506
0.05 -0.333333 0.076426 0.05 -0.333333 0.077619 0.05 -0.333333 0.0788299 0.05
-0.333333 0.0800588 0.05 -0.333333 0.0813062 0.05 -0.333333 0.0825722 0.05 -0.333333
0.0838571 0.05 -0.333333 0.0851613 0.05 -0.333333 0.086485 0.05 -0.333333 0.0878285
0.05 -0.333333 0.0891921 0.05 -0.333333 0.0905761 0.05 -0.333333 0.0919809 0.05
-0.333333 0.0934066 0.05 -0.333333 0.0948537 0.05 -0.333333 0.0963225 0.05 -0.333333
0.0978132 0.05 -0.333333 0.0993262 0.05 -0.333333 0.100862 0.05 -0.333333 0.102421
0.05 -0.333333 0.104003 0.05 -0.333333 0.105608 0.05 -0.333333 0.107238 0.05
-0.333333 0.108892 0.05 -0.333333 0.110571 0.05 -0.333333 0.112275 0.05 -0.333333
0.114004 0.05 -0.333333 0.115759 0.05 -0.333333 0.117541 0.05 -0.333333 0.119349
0.05 -0.333333 0.121185 0.05 -0.333333 0.123047 0.05 -0.333333 0.124938 0.05
-0.333333 0.126857 0.05 -0.333333 0.128805 0.05 -0.333333 0.130781 0.05 -0.333333
0.132788 0.05 -0.333333 0.134824 0.05 -0.333333 0.136891 0.05 -0.333333 0.138989
0.05 -0.333333 0.141118 0.05 -0.333333 0.143279 0.05 -0.333333 0.145473 0.05
-0.333333 0.147699 0.05 -0.333333 0.149958 0.05 -0.333333 0.152252 0.05 -0.333333
0.154579 0.05 -0.333333 0.156942 0.05 -0.333333 0.15934 0.05 -0.333333 0.161773
0.05 -0.333333 0.164244 0.05 -0.333333 0.166751 0.05 -0.333333 0.169295 0.05
-0.333333 0.171878 0.05 -0.333333 0.174499 0.05 -0.333333 0.17716 0.05 -0.333333
0.17986 0.05 -0.333333 0.182601 0.05 -0.333333 0.185383 0.05 -0.333333 0.188207
0.05 -0.333333 0.191072 0.05 -0.333333 0.193981 0.05 -0.333333 0.196933 0.05
-0.333333 0.199929 0.05 -0.333333 0.20297 0.05 -0.333333 0.206057 0.05 -0.333333
0.20919 0.05 -0.333333 0.21237 0.05 -0.333333 0.215597 0.05 -0.333333 0.218873
0.05 -0.333333 0.222197 0.05 -0.333333 0.225572 0.05 -0.333333 0.228996 0.05
-0.333333 0.232473 0.05 -0.333333 0.236001 0.05 -0.333333 0.239582 0.05 -0.333333
0.243216 0.05 -0.333333 0.246905 0.05 -0.333333 0.250649 0.05 -0.333333 0.254449
0.05 -0.333333 0.258306 0.05 -0.333333 0.262221 0.05 -0.333333 0.266194 0.05
-0.333333 0.270227 0.05 -0.333333 0.27432 0.05 -0.333333 0.278475 0.05 -0.333333
0.282691 0.05 -0.333333 0.286971 0.05 -0.333333 0.291314 0.05 -0.333333 0.295723
0.05 -0.333333 0.300198 0.05 -0.333333 0.304739 0.05 -0.333333 0.309349 0.05
-0.333333 0.314027 0.05 -0.333333 0.318776 0.05 -0.333333 0.323596 0.05 -0.333333
0.328487 0.05 -0.333333 0.333452 0.05 -0.333333 0.338492 0.05 -0.333333 0.343606
0.05 -0.333333 0.348797 0.05 -0.333333 0.354066 0.05 -0.333333 0.359414 0.05
-0.333333 0.364842 0.05 -0.333333 0.370351 0.05 -0.333333 0.375942 0.05 -0.333333
0.381617 0.05 -0.333333 0.387377 0.05 -0.333333 0.393223 0.05 -0.333333 0.399157
0.05 -0.333333 0.40518 0.05 -0.333333 0.411292 0.05 -0.333333 0.417496 0.05
-0.333333 0.423793 0.05 -0.333333 0.430184 0.05 -0.333333 0.436671 0.05 -0.333333
0.443255 0.05 -0.333333 0.449937 0.05 -0.333333 0.45672 0.05 -0.333333 0.463604
0.05 -0.333333 0.47059 0.05 -0.333333 0.477682 0.05 -0.333333 0.484879 0.05
-0.333333 0.492185 0.05 -0.333333 0.499599 0.05 -0.333333 0.507125 0.05 -0.333333
0.514763 0.05 -0.333333 0.522515 0.05 -0.333333 0.530384 0.05 -0.333333 0.53837
0.05 -0.333333 0.546476 0.05 -0.333333 0.554703 0.05 -0.333333 0.563053 0.05
-0.333333 0.571528 0.05 -0.333333 0.58013 0.05 -0.333333 0.588861 0.05 -0.333333
0.597722 0.05 -0.333333 0.606716 0.05 -0.333333 0.615844 0.05 -0.333333 0.625109
0.05 -0.333333 0.634513 0.05 -0.333333 0.644058 0.05 -0.333333 0.653745 0.05
-0.333333 0.663577 0.05 -0.333333 0.673557 0.05 -0.333333 0.683685 0.05 -0.333333
0.693966 0.05 -0.333333 0.7044 0.05 -0.333333 0.71499 0.05 -0.333333 0.725739
0.05 -0.333333 0.736648 0.05 -0.333333 0.747721 0.05 -0.333333 0.75896 0.05
-0.333333 0.770366 0.05 -0.333333 0.781944 0.05 -0.333333 0.793695 0.05 -0.333333
0.805621 0.05 -0.333333 0.817726 0.05 -0.333333 0.830012 0.05 -0.333333 0.842482
0.05 -0.333333 0.855139 0.05 -0.333333 0.867985 0.05 -0.333333 0.881023 0.05
-0.333333 0.894256 0.05 -0.333333 0.907688 0.05 -0.333333 0.92132 0.05 -0.333333
0.935157 0.05 -0.333333 0.9492 0.05 -0.333333 0.963454 0.05 -0.333333 0.97792
0.05 -0.333333 0.992604 0.05 
POINT_DATA  772
FIELD attributes 11
Cy 1 772 float
2.4654e-05 2.4654e-05 4.94925e-05 4.94925e-05 9.95412e-05 9.95412e-05 0.000150339 0.000150339 0.000201897 0.000201897 0.000254226
0.000254226 0.000307338 0.000307338 0.000361245 0.000361245 0.000415959 0.000415959 0.000471492 0.000471492 0.000527856
0.000527856 0.000585063 0.000585063 0.000643126 0.000643126 0.000702058 0.000702058 0.000761872 0.000761872 0.000822581
0.000822581 0.000884199 0.000884199 0.000946738 0.000946738 0.00101021 0.00101021 0.00107464 0.00107464 0.00114003
0.00114003 0.0012064 0.0012064 0.00127376 0.00127376 0.00134213 0.00134213 0.00141152 0.00141152 0.00148195
0.00148195 0.00155343 0.00155343 0.00162599 0.00162599 0.00169963 0.00169963 0.00177437 0.00177437 0.00185023
0.00185023 0.00192723 0.00192723 0.00200537 0.00200537 0.00208469 0.00208469 0.0021652 0.0021652 0.00224691
0.00224691 0.00232984 0.00232984 0.00241401 0.00241401 0.00249944 0.00249944 0.00258615 0.00258615 0.00267416
0.00267416 0.00276349 0.00276349 0.00285415 0.00285415 0.00294617 0.00294617 0.00303956 0.00303956 0.00313436
0.00313436 0.00323057 0.00323057 0.00332822 0.00332822 0.00342733 0.00342733 0.00352793 0.00352793 0.00363003
0.00363003 0.00373366 0.00373366 0.00383884 0.00383884 0.0039456 0.0039456 0.00405395 0.00405395 0.00416392
0.00416392 0.00427554 0.00427554 0.00438883 0.00438883 0.00450381 0.00450381 0.00462052 0.00462052 0.00473897
0.00473897 0.00485919 0.00485919 0.00498122 0.00498122 0.00510507 0.00510507 0.00523077 0.00523077 0.00535835
0.00535835 0.00548785 0.00548785 0.00561928 0.00561928 0.00575267 0.00575267 0.00588807 0.00588807 0.00602549
0.00602549 0.00616496 0.00616496 0.00630653 0.00630653 0.00645021 0.00645021 0.00659604 0.00659604 0.00674406
0.00674406 0.00689429 0.00689429 0.00704676 0.00704676 0.00720152 0.00720152 0.0073586 0.0073586 0.00751802
0.00751802 0.00767983 0.00767983 0.00784407 0.00784407 0.00801076 0.00801076 0.00817994 0.00817994 0.00835166
0.00835166 0.00852594 0.00852594 0.00870284 0.00870284 0.00888238 0.00888238 0.00906461 0.00906461 0.00924956
0.00924956 0.00943729 0.00943729 0.00962782 0.00962782 0.0098212 0.0098212 0.0100175 0.0100175 0.0102167
0.0102167 0.0104189 0.0104189 0.0106241 0.0106241 0.0108324 0.0108324 0.0110438 0.0110438 0.0112584
0.0112584 0.0114762 0.0114762 0.0116972 0.0116972 0.0119216 0.0119216 0.0121493 0.0121493 0.0123804
0.0123804 0.012615 0.012615 0.012853 0.012853 0.0130947 0.0130947 0.0133399 0.0133399 0.0135889
0.0135889 0.0138415 0.0138415 0.014098 0.014098 0.0143583 0.0143583 0.0146224 0.0146224 0.0148906
0.0148906 0.0151627 0.0151627 0.0154389 0.0154389 0.0157192 0.0157192 0.0160038 0.0160038 0.0162926
0.0162926 0.0165857 0.0165857 0.0168832 0.0168832 0.0171852 0.0171852 0.0174916 0.0174916 0.0178027
0.0178027 0.0181184 0.0181184 0.0184388 0.0184388 0.0187641 0.0187641 0.0190942 0.0190942 0.0194292
0.0194292 0.0197693 0.0197693 0.0201144 0.0201144 0.0204647 0.0204647 0.0208203 0.0208203 0.0211812
0.0211812 0.0215474 0.0215474 0.0219192 0.0219192 0.0222965 0.0222965 0.0226795 0.0226795 0.0230682
0.0230682 0.0234627 0.0234627 0.0238631 0.0238631 0.0242695 0.0242695 0.024682 0.024682 0.0251006
0.0251006 0.0255256 0.0255256 0.0259569 0.0259569 0.0263946 0.0263946 0.0268389 0.0268389 0.0272898
0.0272898 0.0277475 0.0277475 0.028212 0.028212 0.0286835 0.0286835 0.0291621 0.0291621 0.0296478
0.0296478 0.0301407 0.0301407 0.0306411 0.0306411 0.0311489 0.0311489 0.0316644 0.0316644 0.0321875
0.0321875 0.0327185 0.0327185 0.0332574 0.0332574 0.0338044 0.0338044 0.0343596 0.0343596 0.034923
0.034923 0.035495 0.035495 0.0360754 0.0360754 0.0366646 0.0366646 0.0372626 0.0372626 0.0378695
0.0378695 0.0384855 0.0384855 0.0391107 0.0391107 0.0397453 0.0397453 0.0403894 0.0403894 0.0410431
0.0410431 0.0417066 0.0417066 0.04238 0.04238 0.0430635 0.0430635 0.0437572 0.0437572 0.0444613
0.0444613 0.045176 0.045176 0.0459013 0.0459013 0.0466375 0.0466375 0.0473847 0.0473847 0.0481431
0.0481431 0.0489129 0.0489129 0.0496941 0.0496941 0.0504871 0.0504871 0.0512919 0.0512919 0.0521088
0.0521088 0.0529379 0.0529379 0.0537794 0.0537794 0.0546334 0.0546334 0.0555003 0.0555003 0.0563802
0.0563802 0.0572732 0.0572732 0.0581795 0.0581795 0.0590995 0.0590995 0.0600332 0.0600332 0.0609808
0.0609808 0.0619427 0.0619427 0.0629189 0.0629189 0.0639098 0.0639098 0.0649155 0.0649155 0.0659362
0.0659362 0.0669722 0.0669722 0.0680237 0.0680237 0.069091 0.069091 0.0701742 0.0701742 0.0712736
0.0712736 0.0723895 0.0723895 0.0735221 0.0735221 0.0746716 0.0746716 0.0758383 0.0758383 0.0770225
0.0770225 0.0782244 0.0782244 0.0794443 0.0794443 0.0806825 0.0806825 0.0819392 0.0819392 0.0832146
0.0832146 0.0845092 0.0845092 0.0858232 0.0858232 0.0871568 0.0871568 0.0885103 0.0885103 0.0898841
0.0898841 0.0912785 0.0912785 0.0926938 0.0926938 0.0941302 0.0941302 0.0955881 0.0955881 0.0970678
0.0970678 0.0985697 0.0985697 0.100094 0.100094 0.101641 0.101641 0.103212 0.103212 0.104805
0.104805 0.106423 0.106423 0.108065 0.108065 0.109731 0.109731 0.111423 0.111423 0.113139
0.113139 0.114882 0.114882 0.11665 0.11665 0.118445 0.118445 0.120267 0.120267 0.122116
0.122116 0.123993 0.123993 0.125897 0.125897 0.127831 0.127831 0.129793 0.129793 0.131785
0.131785 0.133806 0.133806 0.135858 0.135858 0.13794 0.13794 0.140053 0.140053 0.142199
0.142199 0.144376 0.144376 0.146586 0.146586 0.148829 0.148829 0.151105 0.151105 0.153415
0.153415 0.155761 0.155761 0.158141 0.158141 0.160557 0.160557 0.163008 0.163008 0.165497
0.165497 0.168023 0.168023 0.170587 0.170587 0.173189 0.173189 0.17583 0.17583 0.17851
0.17851 0.181231 0.181231 0.183992 0.183992 0.186795 0.186795 0.189639 0.189639 0.192527
0.192527 0.195457 0.195457 0.198431 0.198431 0.20145 0.20145 0.204514 0.204514 0.207624
0.207624 0.21078 0.21078 0.213983 0.213983 0.217235 0.217235 0.220535 0.220535 0.223884
0.223884 0.227284 0.227284 0.230734 0.230734 0.234237 0.234237 0.237791 0.237791 0.241399
0.241399 0.245061 0.245061 0.248777 0.248777 0.252549 0.252549 0.256378 0.256378 0.260264
0.260264 0.264208 0.264208 0.268211 0.268211 0.272274 0.272274 0.276397 0.276397 0.280583
0.280583 0.284831 0.284831 0.289143 0.289143 0.293519 0.293519 0.29796 0.29796 0.302468
0.302468 0.307044 0.307044 0.311688 0.311688 0.316402 0.316402 0.321186 0.321186 0.326041
0.326041 0.33097 0.33097 0.335972 0.335972 0.341049 0.341049 0.346202 0.346202 0.351432
0.351432 0.35674 0.35674 0.362128 0.362128 0.367596 0.367596 0.373146 0.373146 0.37878
0.37878 0.384497 0.384497 0.3903 0.3903 0.39619 0.39619 0.402168 0.402168 0.408236
0.408236 0.414394 0.414394 0.420645 0.420645 0.426989 0.426989 0.433428 0.433428 0.439963
0.439963 0.446596 0.446596 0.453328 0.453328 0.460162 0.460162 0.467097 0.467097 0.474136
0.474136 0.481281 0.481281 0.488532 0.488532 0.495892 0.495892 0.503362 0.503362 0.510944
0.510944 0.518639 0.518639 0.52645 0.52645 0.534377 0.534377 0.542423 0.542423 0.550589
0.550589 0.558878 0.558878 0.56729 0.56729 0.575829 0.575829 0.584495 0.584495 0.593291
0.593291 0.602219 0.602219 0.61128 0.61128 0.620477 0.620477 0.629811 0.629811 0.639285
0.639285 0.648901 0.648901 0.658661 0.658661 0.668567 0.668567 0.678621 0.678621 0.688825
0.688825 0.699182 0.699182 0.709694 0.709694 0.720364 0.720364 0.731193 0.731193 0.742184
0.742184 0.75334 0.75334 0.764663 0.764663 0.776155 0.776155 0.787819 0.787819 0.799657
0.799657 0.811673 0.811673 0.823869 0.823869 0.836247 0.836247 0.84881 0.84881 0.861561
0.861561 0.874503 0.874503 0.887639 0.887639 0.900971 0.900971 0.914503 0.914503 0.928237
0.928237 0.942177 0.942177 0.956326 0.956326 0.970686 0.970686 0.985261 0.985261 0.992604
0.992604 
nut 1 772 float
1.24496e-07 1.24496e-07 1.24496e-07 1.24496e-07 1.24496e-07 1.24496e-07 1.24496e-07 1.24496e-07 1.24496e-07 1.24496e-07 1.24496e-07
1.24496e-07 1.24496e-07 1.24496e-07 1.24496e-07 1.24496e-07 1.24496e-07 1.24496e-07 1.24496e-07 1.24496e-07 1.24496e-07
1.24496e-07 1.24496e-07 1.24496e-07 1.24496e-07 1.24496e-07 1.24496e-07 1.24496e-07 1.24496e-07 1.24496e-07 1.24496e-07
1.24496e-07 1.24496e-07 1.24496e-07 1.24496e-07 1.24496e-07 1.24496e-07 1.24496e-07 1.24496e-07 1.24496e-07 1.24496e-07
1.24496e-07 1.24496e-07 1.24496e-07 1.24496e-07 1.24496e-07 1.24496e-07 1.24496e-07 1.24496e-07 1.24496e-07 1.24496e-07
1.24496e-07 1.24496e-07 1.24496e-07 1.24496e-07 1.24496e-07 1.24496e-07 1.24496e-07 1.24496e-07 1.24496e-07 1.24496e-07
1.24496e-07 1.24496e-07 1.24496e-07 1.24496e-07 1.24496e-07 1.24496e-07 1.24496e-07 1.24496e-07 1.24496e-07 1.24496e-07
1.24496e-07 1.24496e-07 1.24496e-07 1.24496e-07 1.24496e-07 1.24496e-07 1.24496e-07 1.24496e-07 1.24496e-07 1.24496e-07
1.24496e-07 1.24496e-07 1.24496e-07 1.24496e-07 1.24496e-07 1.24496e-07 1.24496e-07 1.24496e-07 1.24496e-07 1.24496e-07
1.24496e-07 1.24496e-07 1.24496e-07 1.24496e-07 1.24496e-07 1.24496e-07 1.24496e-07 1.24496e-07 1.24496e-07 1.24496e-07
1.24496e-07 1.24496e-07 1.24496e-07 1.24496e-07 1.24496e-07 1.24496e-07 1.24496e-07 1.24496e-07 1.24496e-07 1.24496e-07
1.24496e-07 1.24496e-07 1.24496e-07 1.24496e-07 1.24496e-07 1.24496e-07 1.24496e-07 1.24496e-07 1.24496e-07 1.24496e-07
1.24496e-07 1.24496e-07 1.24496e-07 1.24496e-07 1.24496e-07 1.24496e-07 1.24496e-07 1.24496e-07 1.24496e-07 1.24496e-07
1.24496e-07 1.24496e-07 1.24496e-07 1.24496e-07 1.24496e-07 1.24496e-07 1.24496e-07 1.24496e-07 1.24496e-07 1.24496e-07
1.24496e-07 1.24496e-07 1.24496e-07 1.24496e-07 1.24496e-07 1.24496e-07 1.24496e-07 1.24496e-07 1.24496e-07 1.24496e-07
1.24496e-07 1.24496e-07 1.24496e-07 1.24496e-07 1.24496e-07 1.24496e-07 1.24496e-07 1.24496e-07 1.24496e-07 1.24496e-07
1.24496e-07 1.24496e-07 1.24496e-07 1.24496e-07 1.24496e-07 1.24496e-07 1.24496e-07 1.24496e-07 1.24496e-07 1.24496e-07
1.24496e-07 1.24496e-07 1.24496e-07 1.24496e-07 1.24496e-07 1.24496e-07 1.24496e-07 1.24496e-07 1.24496e-07 1.24496e-07
1.24496e-07 1.24496e-07 1.24496e-07 1.24496e-07 1.24496e-07 1.24496e-07 1.24496e-07 1.24496e-07 1.24496e-07 1.24496e-07
1.24496e-07 1.24496e-07 1.24496e-07 1.24496e-07 1.24496e-07 1.24496e-07 1.24496e-07 1.24496e-07 1.24496e-07 1.24496e-07
1.24496e-07 1.24496e-07 1.24496e-07 1.24496e-07 1.24496e-07 1.24496e-07 1.24496e-07 1.24496e-07 1.24496e-07 1.24496e-07
1.24496e-07 1.24496e-07 1.24496e-07 1.24496e-07 1.24496e-07 1.24496e-07 1.24496e-07 1.24496e-07 1.24496e-07 1.24496e-07
1.24496e-07 1.24496e-07 1.24496e-07 1.24496e-07 1.24496e-07 1.24496e-07 1.24496e-07 1.24496e-07 1.24496e-07 1.24496e-07
1.24496e-07 1.24496e-07 1.24496e-07 1.24496e-07 1.24496e-07 1.24496e-07 1.24496e-07 1.24496e-07 1.24496e-07 1.24496e-07
1.24496e-07 1.24496e-07 1.24496e-07 1.24496e-07 1.24496e-07 1.24496e-07 1.24496e-07 1.24496e-07 1.24496e-07 1.24496e-07
1.24496e-07 1.24496e-07 1.24496e-07 1.24496e-07 1.24496e-07 1.24496e-07 1.24496e-07 1.24496e-07 1.24496e-07 1.24496e-07
1.24496e-07 1.24496e-07 1.24496e-07 1.24496e-07 1.24496e-07 1.24496e-07 1.24496e-07 1.24496e-07 1.24496e-07 1.24496e-07
1.24496e-07 1.24496e-07 1.24496e-07 1.24496e-07 1.24496e-07 1.24496e-07 1.24496e-07 1.24496e-07 1.24496e-07 1.24496e-07
1.24496e-07 1.24496e-07 1.24496e-07 1.24496e-07 1.24496e-07 1.24496e-07 1.24496e-07 1.24496e-07 1.24496e-07 1.24496e-07
1.24496e-07 1.24496e-07 1.24496e-07 1.24496e-07 1.24496e-07 1.24496e-07 1.24496e-07 1.24496e-07 1.24496e-07 1.24496e-07
1.24496e-07 1.24496e-07 1.24496e-07 1.24496e-07 1.24496e-07 1.24496e-07 1.24496e-07 1.24496e-07 1.24496e-07 1.24496e-07
1.24496e-07 1.24496e-07 1.24496e-07 1.24496e-07 1.24496e-07 1.24496e-07 1.24496e-07 1.24496e-07 1.24496e-07 1.24496e-07
1.24496e-07 1.24496e-07 1.24496e-07 1.24496e-07 1.24496e-07 1.24496e-07 1.24496e-07 1.24496e-07 1.24496e-07 1.24496e-07
1.24496e-07 1.24496e-07 1.24496e-07 1.24496e-07 1.24496e-07 1.24496e-07 1.24496e-07 1.24496e-07 1.24496e-07 1.24496e-07
1.24496e-07 1.24496e-07 1.24496e-07 1.24496e-07 1.24496e-07 1.24496e-07 1.24496e-07 1.24496e-07 1.24496e-07 1.24496e-07
1.24496e-07 1.24496e-07 1.24496e-07 1.24496e-07 1.24496e-07 1.24496e-07 1.24496e-07 1.24496e-07 1.24496e-07 1.24496e-07
1.24496e-07 1.24496e-07 1.24496e-07 1.24496e-07 1.24496e-07 1.24496e-07 1.24496e-07 1.24496e-07 1.24496e-07 1.24496e-07
1.24496e-07 1.24496e-07 1.24496e-07 1.24496e-07 1.24496e-07 1.24496e-07 1.24496e-07 1.24496e-07 1.24496e-07 1.24496e-07
1.24496e-07 1.24496e-07 1.24496e-07 1.24496e-07 1.24496e-07 1.24496e-07 1.24496e-07 1.24496e-07 1.24496e-07 1.24496e-07
1.24496e-07 1.24496e-07 1.24496e-07 1.24496e-07 1.24496e-07 1.24496e-07 1.24496e-07 1.24496e-07 1.24496e-07 1.24496e-07
1.24496e-07 1.24496e-07 1.24496e-07 1.24496e-07 1.24496e-07 1.24496e-07 1.24496e-07 1.24496e-07 1.24496e-07 1.24496e-07
1.24496e-07 1.24496e-07 1.24496e-07 1.24496e-07 1.24496e-07 1.24496e-07 1.24496e-07 1.24496e-07 1.24496e-07 1.24496e-07
1.24496e-07 1.24496e-07 1.24496e-07 1.24496e-07 1.24496e-07 1.24496e-07 1.24496e-07 1.24496e-07 1.24496e-07 1.24496e-07
1.24496e-07 1.24496e-07 1.24496e-07 1.24496e-07 1.24496e-07 1.24496e-07 1.24496e-07 1.24496e-07 1.24496e-07 1.24496e-07
1.24496e-07 1.24496e-07 1.24496e-07 1.24496e-07 1.24496e-07 1.24496e-07 1.24496e-07 1.24496e-07 1.24496e-07 1.24496e-07
1.24496e-07 1.24496e-07 1.24496e-07 1.24496e-07 1.24496e-07 1.24496e-07 1.24496e-07 1.24496e-07 1.24496e-07 1.24496e-07
1.24496e-07 1.24496e-07 1.24496e-07 1.24496e-07 1.24496e-07 1.24496e-07 1.24496e-07 1.24496e-07 1.24496e-07 1.24496e-07
1.24496e-07 1.24496e-07 1.24496e-07 1.24496e-07 1.24496e-07 1.24496e-07 1.24496e-07 1.24496e-07 1.24496e-07 1.24496e-07
1.24496e-07 1.24496e-07 1.24496e-07 1.24496e-07 1.24496e-07 1.24496e-07 1.24496e-07 1.24496e-07 1.24496e-07 1.24496e-07
1.24496e-07 1.24496e-07 1.24496e-07 1.24496e-07 1.24496e-07 1.24496e-07 1.24496e-07 1.24496e-07 1.24496e-07 1.24496e-07
1.24496e-07 1.24496e-07 1.24496e-07 1.24496e-07 1.24496e-07 1.24496e-07 1.24496e-07 1.24496e-07 1.24496e-07 1.24496e-07
1.24496e-07 1.24496e-07 1.24496e-07 1.24496e-07 1.24496e-07 1.24496e-07 1.24496e-07 1.24496e-07 1.24496e-07 1.24496e-07
1.24496e-07 1.24496e-07 1.24496e-07 1.24496e-07 1.24496e-07 1.24496e-07 1.24496e-07 1.24496e-07 1.24496e-07 1.24496e-07
1.24496e-07 1.24496e-07 1.24496e-07 1.24496e-07 1.24496e-07 1.24496e-07 1.24496e-07 1.24496e-07 1.24496e-07 1.24496e-07
1.24496e-07 1.24496e-07 1.24496e-07 1.24496e-07 1.24496e-07 1.24496e-07 1.24496e-07 1.24496e-07 1.24496e-07 1.24496e-07
1.24496e-07 1.24496e-07 1.24496e-07 1.24496e-07 1.24496e-07 1.24496e-07 1.24496e-07 1.24496e-07 1.24496e-07 1.24496e-07
1.24496e-07 1.24496e-07 1.24496e-07 1.24496e-07 1.24496e-07 1.24496e-07 1.24496e-07 1.24496e-07 1.24496e-07 1.24496e-07
1.24496e-07 1.24496e-07 1.24496e-07 1.24496e-07 1.24496e-07 1.24496e-07 1.24496e-07 1.24496e-07 1.24496e-07 1.24496e-07
1.24496e-07 1.24496e-07 1.24496e-07 1.24496e-07 1.24496e-07 1.24496e-07 1.24496e-07 1.24496e-07 1.24496e-07 1.24496e-07
1.24496e-07 1.24496e-07 1.24496e-07 1.24496e-07 1.24496e-07 1.24496e-07 1.24496e-07 1.24496e-07 1.24496e-07 1.24496e-07
1.24496e-07 1.24496e-07 1.24496e-07 1.24496e-07 1.24496e-07 1.24496e-07 1.24496e-07 1.24496e-07 1.24496e-07 1.24496e-07
1.24496e-07 1.24496e-07 1.24496e-07 1.24496e-07 1.24496e-07 1.24496e-07 1.24496e-07 1.24496e-07 1.24496e-07 1.24496e-07
1.24496e-07 1.24496e-07 1.24496e-07 1.24496e-07 1.24496e-07 1.24496e-07 1.24496e-07 1.24496e-07 1.24496e-07 1.24496e-07
1.24496e-07 1.24496e-07 1.24496e-07 1.24496e-07 1.24496e-07 1.24496e-07 1.24496e-07 1.24496e-07 1.24496e-07 1.24496e-07
1.24496e-07 1.24496e-07 1.24496e-07 1.24496e-07 1.24496e-07 1.24496e-07 1.24496e-07 1.24496e-07 1.24496e-07 1.24496e-07
1.24496e-07 1.24496e-07 1.24496e-07 1.24496e-07 1.24496e-07 1.24496e-07 1.24496e-07 1.24496e-07 1.24496e-07 1.24496e-07
1.24496e-07 1.24496e-07 1.24496e-07 1.24496e-07 1.24496e-07 1.24496e-07 1.24496e-07 1.24496e-07 1.24496e-07 1.24496e-07
1.24496e-07 1.24496e-07 1.24496e-07 1.24496e-07 1.24496e-07 1.24496e-07 1.24496e-07 1.24496e-07 1.24496e-07 1.24496e-07
1.24496e-07 1.24496e-07 1.24496e-07 1.24496e-07 1.24496e-07 1.24496e-07 1.24496e-07 1.24496e-07 1.24496e-07 1.24496e-07
1.24496e-07 1.24496e-07 1.24496e-07 1.24496e-07 1.24496e-07 1.24496e-07 1.24496e-07 1.24496e-07 1.24496e-07 1.24496e-07
1.24496e-07 1.24496e-07 1.24496e-07 1.24496e-07 1.24496e-07 1.24496e-07 1.24496e-07 1.24496e-07 1.24496e-07 1.24496e-07
1.24496e-07 1.24496e-07 1.24496e-07 1.24496e-07 1.24496e-07 1.24496e-07 1.24496e-07 1.24496e-07 1.24496e-07 1.24496e-07
1.24496e-07 1.24496e-07 1.24496e-07 1.24496e-07 1.24496e-07 1.24496e-07 1.24496e-07 1.24496e-07 1.24496e-07 1.24496e-07
1.24496e-07 1.24496e-07 1.24496e-07 1.24496e-07 1.24496e-07 1.24496e-07 1.24496e-07 1.24496e-07 1.24496e-07 1.24496e-07
1.24496e-07 1.24496e-07 1.24496e-07 1.24496e-07 1.24496e-07 1.24496e-07 1.24496e-07 1.24496e-07 1.24496e-07 1.24496e-07
1.24496e-07 1.24496e-07 1.24496e-07 1.24496e-07 1.24496e-07 1.24496e-07 1.24496e-07 1.24496e-07 1.24496e-07 1.24496e-07
1.24496e-07 1.24496e-07 1.24496e-07 1.24496e-07 1.24496e-07 1.24496e-07 1.24496e-07 1.24496e-07 1.24496e-07 1.24496e-07
1.24496e-07 
Cz 1 772 float
0.05 0.05 0.05 0.05 0.05 0.05 0.05 0.05 0.05 0.05 0.05
0.05 0.05 0.05 0.05 0.05 0.05 0.05 0.05 0.05 0.05
0.05 0.05 0.05 0.05 0.05 0.05 0.05 0.05 0.05 0.05
0.05 0.05 0.05 0.05 0.05 0.05 0.05 0.05 0.05 0.05
0.05 0.05 0.05 0.05 0.05 0.05 0.05 0.05 0.05 0.05
0.05 0.05 0.05 0.05 0.05 0.05 0.05 0.05 0.05 0.05
0.05 0.05 0.05 0.05 0.05 0.05 0.05 0.05 0.05 0.05
0.05 0.05 0.05 0.05 0.05 0.05 0.05 0.05 0.05 0.05
0.05 0.05 0.05 0.05 0.05 0.05 0.05 0.05 0.05 0.05
0.05 0.05 0.05 0.05 0.05 0.05 0.05 0.05 0.05 0.05
0.05 0.05 0.05 0.05 0.05 0.05 0.05 0.05 0.05 0.05
0.05 0.05 0.05 0.05 0.05 0.05 0.05 0.05 0.05 0.05
0.05 0.05 0.05 0.05 0.05 0.05 0.05 0.05 0.05 0.05
0.05 0.05 0.05 0.05 0.05 0.05 0.05 0.05 0.05 0.05
0.05 0.05 0.05 0.05 0.05 0.05 0.05 0.05 0.05 0.05
0.05 0.05 0.05 0.05 0.05 0.05 0.05 0.05 0.05 0.05
0.05 0.05 0.05 0.05 0.05 0.05 0.05 0.05 0.05 0.05
0.05 0.05 0.05 0.05 0.05 0.05 0.05 0.05 0.05 0.05
0.05 0.05 0.05 0.05 0.05 0.05 0.05 0.05 0.05 0.05
0.05 0.05 0.05 0.05 0.05 0.05 0.05 0.05 0.05 0.05
0.05 0.05 0.05 0.05 0.05 0.05 0.05 0.05 0.05 0.05
0.05 0.05 0.05 0.05 0.05 0.05 0.05 0.05 0.05 0.05
0.05 0.05 0.05 0.05 0.05 0.05 0.05 0.05 0.05 0.05
0.05 0.05 0.05 0.05 0.05 0.05 0.05 0.05 0.05 0.05
0.05 0.05 0.05 0.05 0.05 0.05 0.05 0.05 0.05 0.05
0.05 0.05 0.05 0.05 0.05 0.05 0.05 0.05 0.05 0.05
0.05 0.05 0.05 0.05 0.05 0.05 0.05 0.05 0.05 0.05
0.05 0.05 0.05 0.05 0.05 0.05 0.05 0.05 0.05 0.05
0.05 0.05 0.05 0.05 0.05 0.05 0.05 0.05 0.05 0.05
0.05 0.05 0.05 0.05 0.05 0.05 0.05 0.05 0.05 0.05
0.05 0.05 0.05 0.05 0.05 0.05 0.05 0.05 0.05 0.05
0.05 0.05 0.05 0.05 0.05 0.05 0.05 0.05 0.05 0.05
0.05 0.05 0.05 0.05 0.05 0.05 0.05 0.05 0.05 0.05
0.05 0.05 0.05 0.05 0.05 0.05 0.05 0.05 0.05 0.05
0.05 0.05 0.05 0.05 0.05 0.05 0.05 0.05 0.05 0.05
0.05 0.05 0.05 0.05 0.05 0.05 0.05 0.05 0.05 0.05
0.05 0.05 0.05 0.05 0.05 0.05 0.05 0.05 0.05 0.05
0.05 0.05 0.05 0.05 0.05 0.05 0.05 0.05 0.05 0.05
0.05 0.05 0.05 0.05 0.05 0.05 0.05 0.05 0.05 0.05
0.05 0.05 0.05 0.05 0.05 0.05 0.05 0.05 0.05 0.05
0.05 0.05 0.05 0.05 0.05 0.05 0.05 0.05 0.05 0.05
0.05 0.05 0.05 0.05 0.05 0.05 0.05 0.05 0.05 0.05
0.05 0.05 0.05 0.05 0.05 0.05 0.05 0.05 0.05 0.05
0.05 0.05 0.05 0.05 0.05 0.05 0.05 0.05 0.05 0.05
0.05 0.05 0.05 0.05 0.05 0.05 0.05 0.05 0.05 0.05
0.05 0.05 0.05 0.05 0.05 0.05 0.05 0.05 0.05 0.05
0.05 0.05 0.05 0.05 0.05 0.05 0.05 0.05 0.05 0.05
0.05 0.05 0.05 0.05 0.05 0.05 0.05 0.05 0.05 0.05
0.05 0.05 0.05 0.05 0.05 0.05 0.05 0.05 0.05 0.05
0.05 0.05 0.05 0.05 0.05 0.05 0.05 0.05 0.05 0.05
0.05 0.05 0.05 0.05 0.05 0.05 0.05 0.05 0.05 0.05
0.05 0.05 0.05 0.05 0.05 0.05 0.05 0.05 0.05 0.05
0.05 0.05 0.05 0.05 0.05 0.05 0.05 0.05 0.05 0.05
0.05 0.05 0.05 0.05 0.05 0.05 0.05 0.05 0.05 0.05
0.05 0.05 0.05 0.05 0.05 0.05 0.05 0.05 0.05 0.05
0.05 0.05 0.05 0.05 0.05 0.05 0.05 0.05 0.05 0.05
0.05 0.05 0.05 0.05 0.05 0.05 0.05 0.05 0.05 0.05
0.05 0.05 0.05 0.05 0.05 0.05 0.05 0.05 0.05 0.05
0.05 0.05 0.05 0.05 0.05 0.05 0.05 0.05 0.05 0.05
0.05 0.05 0.05 0.05 0.05 0.05 0.05 0.05 0.05 0.05
0.05 0.05 0.05 0.05 0.05 0.05 0.05 0.05 0.05 0.05
0.05 0.05 0.05 0.05 0.05 0.05 0.05 0.05 0.05 0.05
0.05 0.05 0.05 0.05 0.05 0.05 0.05 0.05 0.05 0.05
0.05 0.05 0.05 0.05 0.05 0.05 0.05 0.05 0.05 0.05
0.05 0.05 0.05 0.05 0.05 0.05 0.05 0.05 0.05 0.05
0.05 0.05 0.05 0.05 0.05 0.05 0.05 0.05 0.05 0.05
0.05 0.05 0.05 0.05 0.05 0.05 0.05 0.05 0.05 0.05
0.05 0.05 0.05 0.05 0.05 0.05 0.05 0.05 0.05 0.05
0.05 0.05 0.05 0.05 0.05 0.05 0.05 0.05 0.05 0.05
0.05 0.05 0.05 0.05 0.05 0.05 0.05 0.05 0.05 0.05
0.05 0.05 0.05 0.05 0.05 0.05 0.05 0.05 0.05 0.05
0.05 0.05 0.05 0.05 0.05 0.05 0.05 0.05 0.05 0.05
0.05 0.05 0.05 0.05 0.05 0.05 0.05 0.05 0.05 0.05
0.05 0.05 0.05 0.05 0.05 0.05 0.05 0.05 0.05 0.05
0.05 0.05 0.05 0.05 0.05 0.05 0.05 0.05 0.05 0.05
0.05 0.05 0.05 0.05 0.05 0.05 0.05 0.05 0.05 0.05
0.05 0.05 0.05 0.05 0.05 0.05 0.05 0.05 0.05 0.05
0.05 
p 1 772 float
21.2727 21.2727 21.2727 21.2727 21.2727 21.2727 21.2727 21.2727 21.2727 21.2727 21.2727
21.2727 21.2727 21.2727 21.2727 21.2727 21.2727 21.2727 21.2727 21.2727 21.2727
21.2727 21.2727 21.2727 21.2727 21.2727 21.2727 21.2727 21.2727 21.2727 21.2727
21.2727 21.2727 21.2727 21.2727 21.2727 21.2727 21.2727 21.2727 21.2727 21.2727
21.2727 21.2727 21.2727 21.2727 21.2727 21.2727 21.2727 21.2727 21.2727 21.2727
21.2727 21.2726 21.2726 21.2726 21.2726 21.2726 21.2726 21.2726 21.2726 21.2726
21.2726 21.2726 21.2726 21.2726 21.2726 21.2726 21.2726 21.2726 21.2726 21.2726
21.2726 21.2725 21.2725 21.2725 21.2725 21.2725 21.2725 21.2725 21.2725 21.2725
21.2725 21.2725 21.2725 21.2724 21.2724 21.2724 21.2724 21.2724 21.2724 21.2724
21.2724 21.2724 21.2724 21.2723 21.2723 21.2723 21.2723 21.2723 21.2723 21.2723
21.2723 21.2722 21.2722 21.2722 21.2722 21.2722 21.2722 21.2721 21.2721 21.2721
21.2721 21.2721 21.2721 21.272 21.272 21.272 21.272 21.272 21.272 21.2719
21.2719 21.2719 21.2719 21.2718 21.2718 21.2718 21.2718 21.2717 21.2717 21.2717
21.2717 21.2716 21.2716 21.2716 21.2716 21.2715 21.2715 21.2715 21.2715 21.2714
21.2714 21.2714 21.2714 21.2713 21.2713 21.2712 21.2712 21.2712 21.2712 21.2711
21.2711 21.271 21.271 21.2709 21.2709 21.2709 21.2709 21.2708 21.2708 21.2707
21.2707 21.2706 21.2706 21.2705 21.2705 21.2704 21.2704 21.2703 21.2703 21.2702
21.2702 21.2701 21.2701 21.27 21.27 21.2699 21.2699 21.2698 21.2698 21.2696
21.2696 21.2695 21.2695 21.2694 21.2694 21.2693 21.2693 21.2691 21.2691 21.269
21.269 21.2688 21.2688 21.2687 21.2687 21.2685 21.2685 21.2683 21.2683 21.2682
21.2682 21.268 21.268 21.2678 21.2678 21.2676 21.2676 21.2674 21.2674 21.2672
21.2672 21.267 21.267 21.2668 21.2668 21.2666 21.2666 21.2663 21.2663 21.2661
21.2661 21.2658 21.2658 21.2656 21.2656 21.2653 21.2653 21.265 21.265 21.2647
21.2647 21.2645 21.2645 21.2641 21.2641 21.2638 21.2638 21.2635 21.2635 21.2632
21.2632 21.2628 21.2628 21.2625 21.2625 21.2621 21.2621 21.2617 21.2617 21.2613
21.2613 21.2609 21.2609 21.2605 21.2605 21.2601 21.2601 21.2596 21.2596 21.2592
21.2592 21.2587 21.2587 21.2582 21.2582 21.2577 21.2577 21.2572 21.2572 21.2566
21.2566 21.256 21.256 21.2555 21.2555 21.2549 21.2549 21.2543 21.2543 21.2536
21.2536 21.253 21.253 21.2523 21.2523 21.2516 21.2516 21.2509 21.2509 21.2501
21.2501 21.2494 21.2494 21.2486 21.2486 21.2477 21.2477 21.2469 21.2469 21.246
21.246 21.2451 21.2451 21.2442 21.2442 21.2432 21.2432 21.2423 21.2423 21.2412
21.2412 21.2402 21.2402 21.2391 21.2391 21.238 21.238 21.2368 21.2368 21.2357
21.2357 21.2344 21.2344 21.2332 21.2332 21.2319 21.2319 21.2305 21.2305 21.2291
21.2291 21.2277 21.2277 21.2262 21.2262 21.2247 21.2247 21.2231 21.2231 21.2215
21.2215 21.2199 21.2199 21.2181 21.2181 21.2164 21.2164 21.2146 21.2146 21.2127
21.2127 21.2107 21.2107 21.2087 21.2087 21.2067 21.2067 21.2046 21.2046 21.2024
21.2024 21.2001 21.2001 21.1978 21.1978 21.1954 21.1954 21.1929 21.1929 21.1904
21.1904 21.1878 21.1878 21.1851 21.1851 21.1823 21.1823 21.1794 21.1794 21.1765
21.1765 21.1735 21.1735 21.1703 21.1703 21.1671 21.1671 21.1638 21.1638 21.1604
21.1604 21.1568 21.1568 21.1532 21.1532 21.1495 21.1495 21.1456 21.1456 21.1417
21.1417 21.1376 21.1376 21.1334 21.1334 21.1291 21.1291 21.1246 21.1246 21.1201
21.1201 21.1153 21.1153 21.1105 21.1105 21.1055 21.1055 21.1004 21.1004 21.0951
21.0951 21.0896 21.0896 21.084 21.084 21.0782 21.0782 21.0723 21.0723 21.0662
21.0662 21.0599 21.0599 21.0535 21.0535 21.0468 21.0468 21.04 21.04 21.033
21.033 21.0257 21.0257 21.0183 21.0183 21.0107 21.0107 21.0028 21.0028 20.9947
20.9947 20.9864 20.9864 20.9779 20.9779 20.9691 20.9691 20.9601 20.9601 20.9509
20.9509 20.9413 20.9413 20.9316 20.9316 20.9215 20.9215 20.9112 20.9112 20.9006
20.9006 20.8897 20.8897 20.8785 20.8785 20.8671 20.8671 20.8553 20.8553 20.8432
20.8432 20.8308 20.8308 20.818 20.818 20.8049 20.8049 20.7915 20.7915 20.7777
20.7777 20.7636 20.7636 20.7491 20.7491 20.7343 20.7343 20.719 20.719 20.7034
20.7034 20.6874 20.6874 20.671 20.671 20.6542 20.6542 20.6369 20.6369 20.6193
20.6193 20.6012 20.6012 20.5827 20.5827 20.5637 20.5637 20.5443 20.5443 20.5244
20.5244 20.504 20.504 20.4832 20.4832 20.4619 20.4619 20.4401 20.4401 20.4178
20.4178 20.395 20.395 20.3717 20.3717 20.3479 20.3479 20.3236 20.3236 20.2987
20.2987 20.2733 20.2733 20.2474 20.2474 20.2209 20.2209 20.1938 20.1938 20.1662
20.1662 20.138 20.138 20.1093 20.1093 20.08 20.08 20.0501 20.0501 20.0196
20.0196 19.9886 19.9886 19.9569 19.9569 19.9247 19.9247 19.8919 19.8919 19.8584
19.8584 19.8244 19.8244 19.7898 19.7898 19.7546 19.7546 19.7187 19.7187 19.6823
19.6823 19.6453 19.6453 19.6077 19.6077 19.5694 19.5694 19.5306 19.5306 19.4912
19.4912 19.4512 19.4512 19.4106 19.4106 19.3694 19.3694 19.3276 19.3276 19.2853
19.2853 19.2423 19.2423 19.1989 19.1989 19.1548 19.1548 19.1102 19.1102 19.0651
19.0651 19.0195 19.0195 18.9733 18.9733 18.9266 18.9266 18.8794 18.8794 18.8317
18.8317 18.7835 18.7835 18.7348 18.7348 18.6857 18.6857 18.6362 18.6362 18.5862
18.5862 18.5358 18.5358 18.485 18.485 18.4338 18.4338 18.3823 18.3823 18.3304
18.3304 18.2782 18.2782 18.2256 18.2256 18.1728 18.1728 18.1197 18.1197 18.0664
18.0664 18.0128 18.0128 17.959 17.959 17.905 17.905 17.8508 17.8508 17.7965
17.7965 17.7421 17.7421 17.6876 17.6876 17.6331 17.6331 17.5784 17.5784 17.5238
17.5238 17.4692 17.4692 17.4146 17.4146 17.3601 17.3601 17.3056 17.3056 17.2513
17.2513 17.1972 17.1972 17.1432 17.1432 17.0895 17.0895 17.036 17.036 16.9828
16.9828 16.9299 16.9299 16.8774 16.8774 16.8252 16.8252 16.7735 16.7735 16.7222
16.7222 16.6714 16.6714 16.6212 16.6212 16.5715 16.5715 16.5224 16.5224 16.474
16.474 16.4263 16.4263 16.3794 16.3794 16.3332 16.3332 16.2879 16.2879 16.2434
16.2434 16.1999 16.1999 16.1573 16.1573 16.1158 16.1158 16.0753 16.0753 16.036
16.036 15.9979 15.9979 15.961 15.961 15.9255 15.9255 15.8913 15.8913 15.8586
15.8586 15.8273 15.8273 15.7977 15.7977 15.7697 15.7697 15.7434 15.7434 15.7189
15.7189 15.6963 15.6963 15.6756 15.6756 15.657 15.657 15.6405 15.6405 15.6263
15.6263 15.6144 15.6144 15.605 15.605 15.5981 15.5981 15.5939 15.5939 15.5925
15.5925 
k 1 772 float
0.00108 0.00108 0.00108 0.00108 0.00108 0.00108 0.00108 0.00108 0.00108 0.00108 0.00108
0.00108 0.00108 0.00108 0.00108 0.00108 0.00108 0.00108 0.00108 0.00108 0.00108
0.00108 0.00108 0.00108 0.00108 0.00108 0.00108 0.00108 0.00108 0.00108 0.00108
0.00108 0.00108 0.00108 0.00108 0.00108 0.00108 0.00108 0.00108 0.00108 0.00108
0.00108 0.00108 0.00108 0.00108 0.00108 0.00108 0.00108 0.00108 0.00108 0.00108
0.00108 0.00108 0.00108 0.00108 0.00108 0.00108 0.00108 0.00108 0.00108 0.00108
0.00108 0.00108 0.00108 0.00108 0.00108 0.00108 0.00108 0.00108 0.00108 0.00108
0.00108 0.00108 0.00108 0.00108 0.00108 0.00108 0.00108 0.00108 0.00108 0.00108
0.00108 0.00108 0.00108 0.00108 0.00108 0.00108 0.00108 0.00108 0.00108 0.00108
0.00108 0.00108 0.00108 0.00108 0.00108 0.00108 0.00108 0.00108 0.00108 0.00108
0.00108 0.00108 0.00108 0.00108 0.00108 0.00108 0.00108 0.00108 0.00108 0.00108
0.00108 0.00108 0.00108 0.00108 0.00108 0.00108 0.00108 0.00108 0.00108 0.00108
0.00108 0.00108 0.00108 0.00108 0.00108 0.00108 0.00108 0.00108 0.00108 0.00108
0.00108 0.00108 0.00108 0.00108 0.00108 0.00108 0.00108 0.00108 0.00108 0.00108
0.00108 0.00108 0.00108 0.00108 0.00108 0.00108 0.00108 0.00108 0.00108 0.00108
0.00108 0.00108 0.00108 0.00108 0.00108 0.00108 0.00108 0.00108 0.00108 0.00108
0.00108 0.00108 0.00108 0.00108 0.00108 0.00108 0.00108 0.00108 0.00108 0.00108
0.00108 0.00108 0.00108 0.00108 0.00108 0.00108 0.00108 0.00108 0.00108 0.00108
0.00108 0.00108 0.00108 0.00108 0.00108 0.00108 0.00108 0.00108 0.00108 0.00108
0.00108 0.00108 0.00108 0.00108 0.00108 0.00108 0.00108 0.00108 0.00108 0.00108
0.00108 0.00108 0.00108 0.00108 0.00108 0.00108 0.00108 0.00108 0.00108 0.00108
0.00108 0.00108 0.00108 0.00108 0.00108 0.00108 0.00108 0.00108 0.00108 0.00108
0.00108 0.00108 0.00108 0.00108 0.00108 0.00108 0.00108 0.00108 0.00108 0.00108
0.00108 0.00108 0.00108 0.00108 0.00108 0.00108 0.00108 0.00108 0.00108 0.00108
0.00108 0.00108 0.00108 0.00108 0.00108 0.00108 0.00108 0.00108 0.00108 0.00108
0.00108 0.00108 0.00108 0.00108 0.00108 0.00108 0.00108 0.00108 0.00108 0.00108
0.00108 0.00108 0.00108 0.00108 0.00108 0.00108 0.00108 0.00108 0.00108 0.00108
0.00108 0.00108 0.00108 0.00108 0.00108 0.00108 0.00108 0.00108 0.00108 0.00108
0.00108 0.00108 0.00108 0.00108 0.00108 0.00108 0.00108 0.00108 0.00108 0.00108
0.00108 0.00108 0.00108 0.00108 0.00108 0.00108 0.00108 0.00108 0.00108 0.00108
0.00108 0.00108 0.00108 0.00108 0.00108 0.00108 0.00108 0.00108 0.00108 0.00108
0.00108 0.00108 0.00108 0.00108 0.00108 0.00108 0.00108 0.00108 0.00108 0.00108
0.00108 0.00108 0.00108 0.00108 0.00108 0.00108 0.00108 0.00108 0.00108 0.00108
0.00108 0.00108 0.00108 0.00108 0.00108 0.00108 0.00108 0.00108 0.00108 0.00108
0.00108 0.00108 0.00108 0.00108 0.00108 0.00108 0.00108 0.00108 0.00108 0.00108
0.00108 0.00108 0.00108 0.00108 0.00108 0.00108 0.00108 0.00108 0.00108 0.00108
0.00108 0.00108 0.00108 0.00108 0.00108 0.00108 0.00108 0.00108 0.00108 0.00108
0.00108 0.00108 0.00108 0.00108 0.00108 0.00108 0.00108 0.00108 0.00108 0.00108
0.00108 0.00108 0.00108 0.00108 0.00108 0.00108 0.00108 0.00108 0.00108 0.00108
0.00108 0.00108 0.00108 0.00108 0.00108 0.00108 0.00108 0.00108 0.00108 0.00108
0.00108 0.00108 0.00108 0.00108 0.00108 0.00108 0.00108 0.00108 0.00108 0.00108
0.00108 0.00108 0.00108 0.00108 0.00108 0.00108 0.00108 0.00108 0.00108 0.00108
0.00108 0.00108 0.00108 0.00108 0.00108 0.00108 0.00108 0.00108 0.00108 0.00108
0.00108 0.00108 0.00108 0.00108 0.00108 0.00108 0.00108 0.00108 0.00108 0.00108
0.00108 0.00108 0.00108 0.00108 0.00108 0.00108 0.00108 0.00108 0.00108 0.00108
0.00108 0.00108 0.00108 0.00108 0.00108 0.00108 0.00108 0.00108 0.00108 0.00108
0.00108 0.00108 0.00108 0.00108 0.00108 0.00108 0.00108 0.00108 0.00108 0.00108
0.00108 0.00108 0.00108 0.00108 0.00108 0.00108 0.00108 0.00108 0.00108 0.00108
0.00108 0.00108 0.00108 0.00108 0.00108 0.00108 0.00108 0.00108 0.00108 0.00108
0.00108 0.00108 0.00108 0.00108 0.00108 0.00108 0.00108 0.00108 0.00108 0.00108
0.00108 0.00108 0.00108 0.00108 0.00108 0.00108 0.00108 0.00108 0.00108 0.00108
0.00108 0.00108 0.00108 0.00108 0.00108 0.00108 0.00108 0.00108 0.00108 0.00108
0.00108 0.00108 0.00108 0.00108 0.00108 0.00108 0.00108 0.00108 0.00108 0.00108
0.00108 0.00108 0.00108 0.00108 0.00108 0.00108 0.00108 0.00108 0.00108 0.00108
0.00108 0.00108 0.00108 0.00108 0.00108 0.00108 0.00108 0.00108 0.00108 0.00108
0.00108 0.00108 0.00108 0.00108 0.00108 0.00108 0.00108 0.00108 0.00108 0.00108
0.00108 0.00108 0.00108 0.00108 0.00108 0.00108 0.00108 0.00108 0.00108 0.00108
0.00108 0.00108 0.00108 0.00108 0.00108 0.00108 0.00108 0.00108 0.00108 0.00108
0.00108 0.00108 0.00108 0.00108 0.00108 0.00108 0.00108 0.00108 0.00108 0.00108
0.00108 0.00108 0.00108 0.00108 0.00108 0.00108 0.00108 0.00108 0.00108 0.00108
0.00108 0.00108 0.00108 0.00108 0.00108 0.00108 0.00108 0.00108 0.00108 0.00108
0.00108 0.00108 0.00108 0.00108 0.00108 0.00108 0.00108 0.00108 0.00108 0.00108
0.00108 0.00108 0.00108 0.00108 0.00108 0.00108 0.00108 0.00108 0.00108 0.00108
0.00108 0.00108 0.00108 0.00108 0.00108 0.00108 0.00108 0.00108 0.00108 0.00108
0.00108 0.00108 0.00108 0.00108 0.00108 0.00108 0.00108 0.00108 0.00108 0.00108
0.00108 0.00108 0.00108 0.00108 0.00108 0.00108 0.00108 0.00108 0.00108 0.00108
0.00108 0.00108 0.00108 0.00108 0.00108 0.00108 0.00108 0.00108 0.00108 0.00108
0.00108 0.00108 0.00108 0.00108 0.00108 0.00108 0.00108 0.00108 0.00108 0.00108
0.00108 0.00108 0.00108 0.00108 0.00108 0.00108 0.00108 0.00108 0.00108 0.00108
0.00108 0.00108 0.00108 0.00108 0.00108 0.00108 0.00108 0.00108 0.00108 0.00108
0.00108 0.00108 0.00108 0.00108 0.00108 0.00108 0.00108 0.00108 0.00108 0.00108
0.00108 0.00108 0.00108 0.00108 0.00108 0.00108 0.00108 0.00108 0.00108 0.00108
0.00108 0.00108 0.00108 0.00108 0.00108 0.00108 0.00108 0.00108 0.00108 0.00108
0.00108 0.00108 0.00108 0.00108 0.00108 0.00108 0.00108 0.00108 0.00108 0.00108
0.00108 0.00108 0.00108 0.00108 0.00108 0.00108 0.00108 0.00108 0.00108 0.00108
0.00108 0.00108 0.00108 0.00108 0.00108 0.00108 0.00108 0.00108 0.00108 0.00108
0.00108 0.00108 0.00108 0.00108 0.00108 0.00108 0.00108 0.00108 0.00108 0.00108
0.00108 
omega 1 772 float
8675 8675 8675 8675 8675 8675 8675 8675 8675 8675 8675
8675 8675 8675 8675 8675 8675 8675 8675 8675 8675
8675 8675 8675 8675 8675 8675 8675 8675 8675 8675
8675 8675 8675 8675 8675 8675 8675 8675 8675 8675
8675 8675 8675 8675 8675 8675 8675 8675 8675 8675
8675 8675 8675 8675 8675 8675 8675 8675 8675 8675
8675 8675 8675 8675 8675 8675 8675 8675 8675 8675
8675 8675 8675 8675 8675 8675 8675 8675 8675 8675
8675 8675 8675 8675 8675 8675 8675 8675 8675 8675
8675 8675 8675 8675 8675 8675 8675 8675 8675 8675
8675 8675 8675 8675 8675 8675 8675 8675 8675 8675
8675 8675 8675 8675 8675 8675 8675 8675 8675 8675
8675 8675 8675 8675 8675 8675 8675 8675 8675 8675
8675 8675 8675 8675 8675 8675 8675 8675 8675 8675
8675 8675 8675 8675 8675 8675 8675 8675 8675 8675
8675 8675 8675 8675 8675 8675 8675 8675 8675 8675
8675 8675 8675 8675 8675 8675 8675 8675 8675 8675
8675 8675 8675 8675 8675 8675 8675 8675 8675 8675
8675 8675 8675 8675 8675 8675 8675 8675 8675 8675
8675 8675 8675 8675 8675 8675 8675 8675 8675 8675
8675 8675 8675 8675 8675 8675 8675 8675 8675 8675
8675 8675 8675 8675 8675 8675 8675 8675 8675 8675
8675 8675 8675 8675 8675 8675 8675 8675 8675 8675
8675 8675 8675 8675 8675 8675 8675 8675 8675 8675
8675 8675 8675 8675 8675 8675 8675 8675 8675 8675
8675 8675 8675 8675 8675 8675 8675 8675 8675 8675
8675 8675 8675 8675 8675 8675 8675 8675 8675 8675
8675 8675 8675 8675 8675 8675 8675 8675 8675 8675
8675 8675 8675 8675 8675 8675 8675 8675 8675 8675
8675 8675 8675 8675 8675 8675 8675 8675 8675 8675
8675 8675 8675 8675 8675 8675 8675 8675 8675 8675
8675 8675 8675 8675 8675 8675 8675 8675 8675 8675
8675 8675 8675 8675 8675 8675 8675 8675 8675 8675
8675 8675 8675 8675 8675 8675 8675 8675 8675 8675
8675 8675 8675 8675 8675 8675 8675 8675 8675 8675
8675 8675 8675 8675 8675 8675 8675 8675 8675 8675
8675 8675 8675 8675 8675 8675 8675 8675 8675 8675
8675 8675 8675 8675 8675 8675 8675 8675 8675 8675
8675 8675 8675 8675 8675 8675 8675 8675 8675 8675
8675 8675 8675 8675 8675 8675 8675 8675 8675 8675
8675 8675 8675 8675 8675 8675 8675 8675 8675 8675
8675 8675 8675 8675 8675 8675 8675 8675 8675 8675
8675 8675 8675 8675 8675 8675 8675 8675 8675 8675
8675 8675 8675 8675 8675 8675 8675 8675 8675 8675
8675 8675 8675 8675 8675 8675 8675 8675 8675 8675
8675 8675 8675 8675 8675 8675 8675 8675 8675 8675
8675 8675 8675 8675 8675 8675 8675 8675 8675 8675
8675 8675 8675 8675 8675 8675 8675 8675 8675 8675
8675 8675 8675 8675 8675 8675 8675 8675 8675 8675
8675 8675 8675 8675 8675 8675 8675 8675 8675 8675
8675 8675 8675 8675 8675 8675 8675 8675 8675 8675
8675 8675 8675 8675 8675 8675 8675 8675 8675 8675
8675 8675 8675 8675 8675 8675 8675 8675 8675 8675
8675 8675 8675 8675 8675 8675 8675 8675 8675 8675
8675 8675 8675 8675 8675 8675 8675 8675 8675 8675
8675 8675 8675 8675 8675 8675 8675 8675 8675 8675
8675 8675 8675 8675 8675 8675 8675 8675 8675 8675
8675 8675 8675 8675 8675 8675 8675 8675 8675 8675
8675 8675 8675 8675 8675 8675 8675 8675 8675 8675
8675 8675 8675 8675 8675 8675 8675 8675 8675 8675
8675 8675 8675 8675 8675 8675 8675 8675 8675 8675
8675 8675 8675 8675 8675 8675 8675 8675 8675 8675
8675 8675 8675 8675 8675 8675 8675 8675 8675 8675
8675 8675 8675 8675 8675 8675 8675 8675 8675 8675
8675 8675 8675 8675 8675 8675 8675 8675 8675 8675
8675 8675 8675 8675 8675 8675 8675 8675 8675 8675
8675 8675 8675 8675 8675 8675 8675 8675 8675 8675
8675 8675 8675 8675 8675 8675 8675 8675 8675 8675
8675 8675 8675 8675 8675 8675 8675 8675 8675 8675
8675 8675 8675 8675 8675 8675 8675 8675 8675 8675
8675 8675 8675 8675 8675 8675 8675 8675 8675 8675
8675 8675 8675 8675 8675 8675 8675 8675 8675 8675
8675 8675 8675 8675 8675 8675 8675 8675 8675 8675
8675 8675 8675 8675 8675 8675 8675 8675 8675 8675
8675 8675 8675 8675 8675 8675 8675 8675 8675 8675
8675 8675 8675 8675 8675 8675 8675 8675 8675 8675
8675 8675 8675 8675 8675 8675 8675 8675 8675 8675
8675 
Cx 1 772 float
-0.333333 -0.333333 -0.333333 -0.333333 -0.333333 -0.333333 -0.333333 -0.333333 -0.333333 -0.333333 -0.333333
-0.333333 -0.333333 -0.333333 -0.333333 -0.333333 -0.333333 -0.333333 -0.333333 -0.333333 -0.333333
-0.333333 -0.333333 -0.333333 -0.333333 -0.333333 -0.333333 -0.333333 -0.333333 -0.333333 -0.333333
-0.333333 -0.333333 -0.333333 -0.333333 -0.333333 -0.333333 -0.333333 -0.333333 -0.333333 -0.333333
-0.333333 -0.333333 -0.333333 -0.333333 -0.333333 -0.333333 -0.333333 -0.333333 -0.333333 -0.333333
-0.333333 -0.333333 -0.333333 -0.333333 -0.333333 -0.333333 -0.333333 -0.333333 -0.333333 -0.333333
-0.333333 -0.333333 -0.333333 -0.333333 -0.333333 -0.333333 -0.333333 -0.333333 -0.333333 -0.333333
-0.333333 -0.333333 -0.333333 -0.333333 -0.333333 -0.333333 -0.333333 -0.333333 -0.333333 -0.333333
-0.333333 -0.333333 -0.333333 -0.333333 -0.333333 -0.333333 -0.333333 -0.333333 -0.333333 -0.333333
-0.333333 -0.333333 -0.333333 -0.333333 -0.333333 -0.333333 -0.333333 -0.333333 -0.333333 -0.333333
-0.333333 -0.333333 -0.333333 -0.333333 -0.333333 -0.333333 -0.333333 -0.333333 -0.333333 -0.333333
-0.333333 -0.333333 -0.333333 -0.333333 -0.333333 -0.333333 -0.333333 -0.333333 -0.333333 -0.333333
-0.333333 -0.333333 -0.333333 -0.333333 -0.333333 -0.333333 -0.333333 -0.333333 -0.333333 -0.333333
-0.333333 -0.333333 -0.333333 -0.333333 -0.333333 -0.333333 -0.333333 -0.333333 -0.333333 -0.333333
-0.333333 -0.333333 -0.333333 -0.333333 -0.333333 -0.333333 -0.333333 -0.333333 -0.333333 -0.333333
-0.333333 -0.333333 -0.333333 -0.333333 -0.333333 -0.333333 -0.333333 -0.333333 -0.333333 -0.333333
-0.333333 -0.333333 -0.333333 -0.333333 -0.333333 -0.333333 -0.333333 -0.333333 -0.333333 -0.333333
-0.333333 -0.333333 -0.333333 -0.333333 -0.333333 -0.333333 -0.333333 -0.333333 -0.333333 -0.333333
-0.333333 -0.333333 -0.333333 -0.333333 -0.333333 -0.333333 -0.333333 -0.333333 -0.333333 -0.333333
-0.333333 -0.333333 -0.333333 -0.333333 -0.333333 -0.333333 -0.333333 -0.333333 -0.333333 -0.333333
-0.333333 -0.333333 -0.333333 -0.333333 -0.333333 -0.333333 -0.333333 -0.333333 -0.333333 -0.333333
-0.333333 -0.333333 -0.333333 -0.333333 -0.333333 -0.333333 -0.333333 -0.333333 -0.333333 -0.333333
-0.333333 -0.333333 -0.333333 -0.333333 -0.333333 -0.333333 -0.333333 -0.333333 -0.333333 -0.333333
-0.333333 -0.333333 -0.333333 -0.333333 -0.333333 -0.333333 -0.333333 -0.333333 -0.333333 -0.333333
-0.333333 -0.333333 -0.333333 -0.333333 -0.333333 -0.333333 -0.333333 -0.333333 -0.333333 -0.333333
-0.333333 -0.333333 -0.333333 -0.333333 -0.333333 -0.333333 -0.333333 -0.333333 -0.333333 -0.333333
-0.333333 -0.333333 -0.333333 -0.333333 -0.333333 -0.333333 -0.333333 -0.333333 -0.333333 -0.333333
-0.333333 -0.333333 -0.333333 -0.333333 -0.333333 -0.333333 -0.333333 -0.333333 -0.333333 -0.333333
-0.333333 -0.333333 -0.333333 -0.333333 -0.333333 -0.333333 -0.333333 -0.333333 -0.333333 -0.333333
-0.333333 -0.333333 -0.333333 -0.333333 -0.333333 -0.333333 -0.333333 -0.333333 -0.333333 -0.333333
-0.333333 -0.333333 -0.333333 -0.333333 -0.333333 -0.333333 -0.333333 -0.333333 -0.333333 -0.333333
-0.333333 -0.333333 -0.333333 -0.333333 -0.333333 -0.333333 -0.333333 -0.333333 -0.333333 -0.333333
-0.333333 -0.333333 -0.333333 -0.333333 -0.333333 -0.333333 -0.333333 -0.333333 -0.333333 -0.333333
-0.333333 -0.333333 -0.333333 -0.333333 -0.333333 -0.333333 -0.333333 -0.333333 -0.333333 -0.333333
-0.333333 -0.333333 -0.333333 -0.333333 -0.333333 -0.333333 -0.333333 -0.333333 -0.333333 -0.333333
-0.333333 -0.333333 -0.333333 -0.333333 -0.333333 -0.333333 -0.333333 -0.333333 -0.333333 -0.333333
-0.333333 -0.333333 -0.333333 -0.333333 -0.333333 -0.333333 -0.333333 -0.333333 -0.333333 -0.333333
-0.333333 -0.333333 -0.333333 -0.333333 -0.333333 -0.333333 -0.333333 -0.333333 -0.333333 -0.333333
-0.333333 -0.333333 -0.333333 -0.333333 -0.333333 -0.333333 -0.333333 -0.333333 -0.333333 -0.333333
-0.333333 -0.333333 -0.333333 -0.333333 -0.333333 -0.333333 -0.333333 -0.333333 -0.333333 -0.333333
-0.333333 -0.333333 -0.333333 -0.333333 -0.333333 -0.333333 -0.333333 -0.333333 -0.333333 -0.333333
-0.333333 -0.333333 -0.333333 -0.333333 -0.333333 -0.333333 -0.333333 -0.333333 -0.333333 -0.333333
-0.333333 -0.333333 -0.333333 -0.333333 -0.333333 -0.333333 -0.333333 -0.333333 -0.333333 -0.333333
-0.333333 -0.333333 -0.333333 -0.333333 -0.333333 -0.333333 -0.333333 -0.333333 -0.333333 -0.333333
-0.333333 -0.333333 -0.333333 -0.333333 -0.333333 -0.333333 -0.333333 -0.333333 -0.333333 -0.333333
-0.333333 -0.333333 -0.333333 -0.333333 -0.333333 -0.333333 -0.333333 -0.333333 -0.333333 -0.333333
-0.333333 -0.333333 -0.333333 -0.333333 -0.333333 -0.333333 -0.333333 -0.333333 -0.333333 -0.333333
-0.333333 -0.333333 -0.333333 -0.333333 -0.333333 -0.333333 -0.333333 -0.333333 -0.333333 -0.333333
-0.333333 -0.333333 -0.333333 -0.333333 -0.333333 -0.333333 -0.333333 -0.333333 -0.333333 -0.333333
-0.333333 -0.333333 -0.333333 -0.333333 -0.333333 -0.333333 -0.333333 -0.333333 -0.333333 -0.333333
-0.333333 -0.333333 -0.333333 -0.333333 -0.333333 -0.333333 -0.333333 -0.333333 -0.333333 -0.333333
-0.333333 -0.333333 -0.333333 -0.333333 -0.333333 -0.333333 -0.333333 -0.333333 -0.333333 -0.333333
-0.333333 -0.333333 -0.333333 -0.333333 -0.333333 -0.333333 -0.333333 -0.333333 -0.333333 -0.333333
-0.333333 -0.333333 -0.333333 -0.333333 -0.333333 -0.333333 -0.333333 -0.333333 -0.333333 -0.333333
-0.333333 -0.333333 -0.333333 -0.333333 -0.333333 -0.333333 -0.333333 -0.333333 -0.333333 -0.333333
-0.333333 -0.333333 -0.333333 -0.333333 -0.333333 -0.333333 -0.333333 -0.333333 -0.333333 -0.333333
-0.333333 -0.333333 -0.333333 -0.333333 -0.333333 -0.333333 -0.333333 -0.333333 -0.333333 -0.333333
-0.333333 -0.333333 -0.333333 -0.333333 -0.333333 -0.333333 -0.333333 -0.333333 -0.333333 -0.333333
-0.333333 -0.333333 -0.333333 -0.333333 -0.333333 -0.333333 -0.333333 -0.333333 -0.333333 -0.333333
-0.333333 -0.333333 -0.333333 -0.333333 -0.333333 -0.333333 -0.333333 -0.333333 -0.333333 -0.333333
-0.333333 -0.333333 -0.333333 -0.333333 -0.333333 -0.333333 -0.333333 -0.333333 -0.333333 -0.333333
-0.333333 -0.333333 -0.333333 -0.333333 -0.333333 -0.333333 -0.333333 -0.333333 -0.333333 -0.333333
-0.333333 -0.333333 -0.333333 -0.333333 -0.333333 -0.333333 -0.333333 -0.333333 -0.333333 -0.333333
-0.333333 -0.333333 -0.333333 -0.333333 -0.333333 -0.333333 -0.333333 -0.333333 -0.333333 -0.333333
-0.333333 -0.333333 -0.333333 -0.333333 -0.333333 -0.333333 -0.333333 -0.333333 -0.333333 -0.333333
-0.333333 -0.333333 -0.333333 -0.333333 -0.333333 -0.333333 -0.333333 -0.333333 -0.333333 -0.333333
-0.333333 -0.333333 -0.333333 -0.333333 -0.333333 -0.333333 -0.333333 -0.333333 -0.333333 -0.333333
-0.333333 -0.333333 -0.333333 -0.333333 -0.333333 -0.333333 -0.333333 -0.333333 -0.333333 -0.333333
-0.333333 -0.333333 -0.333333 -0.333333 -0.333333 -0.333333 -0.333333 -0.333333 -0.333333 -0.333333
-0.333333 -0.333333 -0.333333 -0.333333 -0.333333 -0.333333 -0.333333 -0.333333 -0.333333 -0.333333
-0.333333 -0.333333 -0.333333 -0.333333 -0.333333 -0.333333 -0.333333 -0.333333 -0.333333 -0.333333
-0.333333 -0.333333 -0.333333 -0.333333 -0.333333 -0.333333 -0.333333 -0.333333 -0.333333 -0.333333
-0.333333 -0.333333 -0.333333 -0.333333 -0.333333 -0.333333 -0.333333 -0.333333 -0.333333 -0.333333
-0.333333 -0.333333 -0.333333 -0.333333 -0.333333 -0.333333 -0.333333 -0.333333 -0.333333 -0.333333
-0.333333 -0.333333 -0.333333 -0.333333 -0.333333 -0.333333 -0.333333 -0.333333 -0.333333 -0.333333
-0.333333 -0.333333 -0.333333 -0.333333 -0.333333 -0.333333 -0.333333 -0.333333 -0.333333 -0.333333
-0.333333 -0.333333 -0.333333 -0.333333 -0.333333 -0.333333 -0.333333 -0.333333 -0.333333 -0.333333
-0.333333 
yPlus 1 772 float
0 0 0 0 0 0 0 0 0 0 0
0 0 0 0 0 0 0 0 0 0
0 0 0 0 0 0 0 0 0 0
0 0 0 0 0 0 0 0 0 0
0 0 0 0 0 0 0 0 0 0
0 0 0 0 0 0 0 0 0 0
0 0 0 0 0 0 0 0 0 0
0 0 0 0 0 0 0 0 0 0
0 0 0 0 0 0 0 0 0 0
0 0 0 0 0 0 0 0 0 0
0 0 0 0 0 0 0 0 0 0
0 0 0 0 0 0 0 0 0 0
0 0 0 0 0 0 0 0 0 0
0 0 0 0 0 0 0 0 0 0
0 0 0 0 0 0 0 0 0 0
0 0 0 0 0 0 0 0 0 0
0 0 0 0 0 0 0 0 0 0
0 0 0 0 0 0 0 0 0 0
0 0 0 0 0 0 0 0 0 0
0 0 0 0 0 0 0 0 0 0
0 0 0 0 0 0 0 0 0 0
0 0 0 0 0 0 0 0 0 0
0 0 0 0 0 0 0 0 0 0
0 0 0 0 0 0 0 0 0 0
0 0 0 0 0 0 0 0 0 0
0 0 0 0 0 0 0 0 0 0
0 0 0 0 0 0 0 0 0 0
0 0 0 0 0 0 0 0 0 0
0 0 0 0 0 0 0 0 0 0
0 0 0 0 0 0 0 0 0 0
0 0 0 0 0 0 0 0 0 0
0 0 0 0 0 0 0 0 0 0
0 0 0 0 0 0 0 0 0 0
0 0 0 0 0 0 0 0 0 0
0 0 0 0 0 0 0 0 0 0
0 0 0 0 0 0 0 0 0 0
0 0 0 0 0 0 0 0 0 0
0 0 0 0 0 0 0 0 0 0
0 0 0 0 0 0 0 0 0 0
0 0 0 0 0 0 0 0 0 0
0 0 0 0 0 0 0 0 0 0
0 0 0 0 0 0 0 0 0 0
0 0 0 0 0 0 0 0 0 0
0 0 0 0 0 0 0 0 0 0
0 0 0 0 0 0 0 0 0 0
0 0 0 0 0 0 0 0 0 0
0 0 0 0 0 0 0 0 0 0
0 0 0 0 0 0 0 0 0 0
0 0 0 0 0 0 0 0 0 0
0 0 0 0 0 0 0 0 0 0
0 0 0 0 0 0 0 0 0 0
0 0 0 0 0 0 0 0 0 0
0 0 0 0 0 0 0 0 0 0
0 0 0 0 0 0 0 0 0 0
0 0 0 0 0 0 0 0 0 0
0 0 0 0 0 0 0 0 0 0
0 0 0 0 0 0 0 0 0 0
0 0 0 0 0 0 0 0 0 0
0 0 0 0 0 0 0 0 0 0
0 0 0 0 0 0 0 0 0 0
0 0 0 0 0 0 0 0 0 0
0 0 0 0 0 0 0 0 0 0
0 0 0 0 0 0 0 0 0 0
0 0 0 0 0 0 0 0 0 0
0 0 0 0 0 0 0 0 0 0
0 0 0 0 0 0 0 0 0 0
0 0 0 0 0 0 0 0 0 0
0 0 0 0 0 0 0 0 0 0
0 0 0 0 0 0 0 0 0 0
0 0 0 0 0 0 0 0 0 0
0 0 0 0 0 0 0 0 0 0
0 0 0 0 0 0 0 0 0 0
0 0 0 0 0 0 0 0 0 0
0 0 0 0 0 0 0 0 0 0
0 0 0 0 0 0 0 0 0 0
0 0 0 0 0 0 0 0 0 0
0 0 0 0 0 0 0 0 0 0
0 
wallShearStress 3 772 float
0 0 0 0 0 0 0 0 0 0 0
0 0 0 0 0 0 0 0 0 0
0 0 0 0 0 0 0 0 0 0
0 0 0 0 0 0 0 0 0 0
0 0 0 0 0 0 0 0 0 0
0 0 0 0 0 0 0 0 0 0
0 0 0 0 0 0 0 0 0 0
0 0 0 0 0 0 0 0 0 0
0 0 0 0 0 0 0 0 0 0
0 0 0 0 0 0 0 0 0 0
0 0 0 0 0 0 0 0 0 0
0 0 0 0 0 0 0 0 0 0
0 0 0 0 0 0 0 0 0 0
0 0 0 0 0 0 0 0 0 0
0 0 0 0 0 0 0 0 0 0
0 0 0 0 0 0 0 0 0 0
0 0 0 0 0 0 0 0 0 0
0 0 0 0 0 0 0 0 0 0
0 0 0 0 0 0 0 0 0 0
0 0 0 0 0 0 0 0 0 0
0 0 0 0 0 0 0 0 0 0
0 0 0 0 0 0 0 0 0 0
0 0 0 0 0 0 0 0 0 0
0 0 0 0 0 0 0 0 0 0
0 0 0 0 0 0 0 0 0 0
0 0 0 0 0 0 0 0 0 0
0 0 0 0 0 0 0 0 0 0
0 0 0 0 0 0 0 0 0 0
0 0 0 0 0 0 0 0 0 0
0 0 0 0 0 0 0 0 0 0
0 0 0 0 0 0 0 0 0 0
0 0 0 0 0 0 0 0 0 0
0 0 0 0 0 0 0 0 0 0
0 0 0 0 0 0 0 0 0 0
0 0 0 0 0 0 0 0 0 0
0 0 0 0 0 0 0 0 0 0
0 0 0 0 0 0 0 0 0 0
0 0 0 0 0 0 0 0 0 0
0 0 0 0 0 0 0 0 0 0
0 0 0 0 0 0 0 0 0 0
0 0 0 0 0 0 0 0 0 0
0 0 0 0 0 0 0 0 0 0
0 0 0 0 0 0 0 0 0 0
0 0 0 0 0 0 0 0 0 0
0 0 0 0 0 0 0 0 0 0
0 0 0 0 0 0 0 0 0 0
0 0 0 0 0 0 0 0 0 0
0 0 0 0 0 0 0 0 0 0
0 0 0 0 0 0 0 0 0 0
0 0 0 0 0 0 0 0 0 0
0 0 0 0 0 0 0 0 0 0
0 0 0 0 0 0 0 0 0 0
0 0 0 0 0 0 0 0 0 0
0 0 0 0 0 0 0 0 0 0
0 0 0 0 0 0 0 0 0 0
0 0 0 0 0 0 0 0 0 0
0 0 0 0 0 0 0 0 0 0
0 0 0 0 0 0 0 0 0 0
0 0 0 0 0 0 0 0 0 0
0 0 0 0 0 0 0 0 0 0
0 0 0 0 0 0 0 0 0 0
0 0 0 0 0 0 0 0 0 0
0 0 0 0 0 0 0 0 0 0
0 0 0 0 0 0 0 0 0 0
0 0 0 0 0 0 0 0 0 0
0 0 0 0 0 0 0 0 0 0
0 0 0 0 0 0 0 0 0 0
0 0 0 0 0 0 0 0 0 0
0 0 0 0 0 0 0 0 0 0
0 0 0 0 0 0 0 0 0 0
0 0 0 0 0 0 0 0 0 0
0 0 0 0 0 0 0 0 0 0
0 0 0 0 0 0 0 0 0 0
0 0 0 0 0 0 0 0 0 0
0 0 0 0 0 0 0 0 0 0
0 0 0 0 0 0 0 0 0 0
0 0 0 0 0 0 0 0 0 0
0 0 0 0 0 0 0 0 0 0
0 0 0 0 0 0 0 0 0 0
0 0 0 0 0 0 0 0 0 0
0 0 0 0 0 0 0 0 0 0
0 0 0 0 0 0 0 0 0 0
0 0 0 0 0 0 0 0 0 0
0 0 0 0 0 0 0 0 0 0
0 0 0 0 0 0 0 0 0 0
0 0 0 0 0 0 0 0 0 0
0 0 0 0 0 0 0 0 0 0
0 0 0 0 0 0 0 0 0 0
0 0 0 0 0 0 0 0 0 0
0 0 0 0 0 0 0 0 0 0
0 0 0 0 0 0 0 0 0 0
0 0 0 0 0 0 0 0 0 0
0 0 0 0 0 0 0 0 0 0
0 0 0 0 0 0 0 0 0 0
0 0 0 0 0 0 0 0 0 0
0 0 0 0 0 0 0 0 0 0
0 0 0 0 0 0 0 0 0 0
0 0 0 0 0 0 0 0 0 0
0 0 0 0 0 0 0 0 0 0
0 0 0 0 0 0 0 0 0 0
0 0 0 0 0 0 0 0 0 0
0 0 0 0 0 0 0 0 0 0
0 0 0 0 0 0 0 0 0 0
0 0 0 0 0 0 0 0 0 0
0 0 0 0 0 0 0 0 0 0
0 0 0 0 0 0 0 0 0 0
0 0 0 0 0 0 0 0 0 0
0 0 0 0 0 0 0 0 0 0
0 0 0 0 0 0 0 0 0 0
0 0 0 0 0 0 0 0 0 0
0 0 0 0 0 0 0 0 0 0
0 0 0 0 0 0 0 0 0 0
0 0 0 0 0 0 0 0 0 0
0 0 0 0 0 0 0 0 0 0
0 0 0 0 0 0 0 0 0 0
0 0 0 0 0 0 0 0 0 0
0 0 0 0 0 0 0 0 0 0
0 0 0 0 0 0 0 0 0 0
0 0 0 0 0 0 0 0 0 0
0 0 0 0 0 0 0 0 0 0
0 0 0 0 0 0 0 0 0 0
0 0 0 0 0 0 0 0 0 0
0 0 0 0 0 0 0 0 0 0
0 0 0 0 0 0 0 0 0 0
0 0 0 0 0 0 0 0 0 0
0 0 0 0 0 0 0 0 0 0
0 0 0 0 0 0 0 0 0 0
0 0 0 0 0 0 0 0 0 0
0 0 0 0 0 0 0 0 0 0
0 0 0 0 0 0 0 0 0 0
0 0 0 0 0 0 0 0 0 0
0 0 0 0 0 0 0 0 0 0
0 0 0 0 0 0 0 0 0 0
0 0 0 0 0 0 0 0 0 0
0 0 0 0 0 0 0 0 0 0
0 0 0 0 0 0 0 0 0 0
0 0 0 0 0 0 0 0 0 0
0 0 0 0 0 0 0 0 0 0
0 0 0 0 0 0 0 0 0 0
0 0 0 0 0 0 0 0 0 0
0 0 0 0 0 0 0 0 0 0
0 0 0 0 0 0 0 0 0 0
0 0 0 0 0 0 0 0 0 0
0 0 0 0 0 0 0 0 0 0
0 0 0 0 0 0 0 0 0 0
0 0 0 0 0 0 0 0 0 0
0 0 0 0 0 0 0 0 0 0
0 0 0 0 0 0 0 0 0 0
0 0 0 0 0 0 0 0 0 0
0 0 0 0 0 0 0 0 0 0
0 0 0 0 0 0 0 0 0 0
0 0 0 0 0 0 0 0 0 0
0 0 0 0 0 0 0 0 0 0
0 0 0 0 0 0 0 0 0 0
0 0 0 0 0 0 0 0 0 0
0 0 0 0 0 0 0 0 0 0
0 0 0 0 0 0 0 0 0 0
0 0 0 0 0 0 0 0 0 0
0 0 0 0 0 0 0 0 0 0
0 0 0 0 0 0 0 0 0 0
0 0 0 0 0 0 0 0 0 0
0 0 0 0 0 0 0 0 0 0
0 0 0 0 0 0 0 0 0 0
0 0 0 0 0 0 0 0 0 0
0 0 0 0 0 0 0 0 0 0
0 0 0 0 0 0 0 0 0 0
0 0 0 0 0 0 0 0 0 0
0 0 0 0 0 0 0 0 0 0
0 0 0 0 0 0 0 0 0 0
0 0 0 0 0 0 0 0 0 0
0 0 0 0 0 0 0 0 0 0
0 0 0 0 0 0 0 0 0 0
0 0 0 0 0 0 0 0 0 0
0 0 0 0 0 0 0 0 0 0
0 0 0 0 0 0 0 0 0 0
0 0 0 0 0 0 0 0 0 0
0 0 0 0 0 0 0 0 0 0
0 0 0 0 0 0 0 0 0 0
0 0 0 0 0 0 0 0 0 0
0 0 0 0 0 0 0 0 0 0
0 0 0 0 0 0 0 0 0 0
0 0 0 0 0 0 0 0 0 0
0 0 0 0 0 0 0 0 0 0
0 0 0 0 0 0 0 0 0 0
0 0 0 0 0 0 0 0 0 0
0 0 0 0 0 0 0 0 0 0
0 0 0 0 0 0 0 0 0 0
0 0 0 0 0 0 0 0 0 0
0 0 0 0 0 0 0 0 0 0
0 0 0 0 0 0 0 0 0 0
0 0 0 0 0 0 0 0 0 0
0 0 0 0 0 0 0 0 0 0
0 0 0 0 0 0 0 0 0 0
0 0 0 0 0 0 0 0 0 0
0 0 0 0 0 0 0 0 0 0
0 0 0 0 0 0 0 0 0 0
0 0 0 0 0 0 0 0 0 0
0 0 0 0 0 0 0 0 0 0
0 0 0 0 0 0 0 0 0 0
0 0 0 0 0 0 0 0 0 0
0 0 0 0 0 0 0 0 0 0
0 0 0 0 0 0 0 0 0 0
0 0 0 0 0 0 0 0 0 0
0 0 0 0 0 0 0 0 0 0
0 0 0 0 0 0 0 0 0 0
0 0 0 0 0 0 0 0 0 0
0 0 0 0 0 0 0 0 0 0
0 0 0 0 0 0 0 0 0 0
0 0 0 0 0 0 0 0 0 0
0 0 0 0 0 0 0 0 0 0
0 0 0 0 0 0 0 0 0 0
0 0 0 0 0 0 0 0 0 0
0 0 0 0 0 0 0 0 0 0
0 0 0 0 0 0 0 0 0 0
0 0 0 0 0 0 0 0 0 0
0 0 0 0 0 0 0 0 0 0
0 0 0 0 0 0 0 0 0 0
0 0 0 0 0 0 0 0 0 0
0 0 0 0 0 0 0 0 0 0
0 0 0 0 0 0 0 0 0 0
0 0 0 0 0 0 0 0 0 0
0 0 0 0 0 0 0 0 0 0
0 0 0 0 0 0 0 0 0 0
0 0 0 0 0 0 0 0 0 0
0 0 0 0 0 0 0 0 0 0
0 0 0 0 0 0 0 0 0 0
0 0 0 0 0 0 0 0 0 0
0 0 0 0 0 0 0 0 0 0
0 0 0 0 0 0 0 0 0 0
0 0 0 0 0 0 0 0 0 0
0 0 0 0 0 0 0 0 0 0
0 0 0 0 0 
U 3 772 float
69.4 0 0 69.4 0 0 69.4 0 0 69.4 0
0 69.4 0 0 69.4 0 0 69.4 0 0
69.4 0 0 69.4 0 0 69.4 0 0 69.4
0 0 69.4 0 0 69.4 0 0 69.4 0
0 69.4 0 0 69.4 0 0 69.4 0 0
69.4 0 0 69.4 0 0 69.4 0 0 69.4
0 0 69.4 0 0 69.4 0 0 69.4 0
0 69.4 0 0 69.4 0 0 69.4 0 0
69.4 0 0 69.4 0 0 69.4 0 0 69.4
0 0 69.4 0 0 69.4 0 0 69.4 0
0 69.4 0 0 69.4 0 0 69.4 0 0
69.4 0 0 69.4 0 0 69.4 0 0 69.4
0 0 69.4 0 0 69.4 0 0 69.4 0
0 69.4 0 0 69.4 0 0 69.4 0 0
69.4 0 0 69.4 0 0 69.4 0 0 69.4
0 0 69.4 0 0 69.4 0 0 69.4 0
0 69.4 0 0 69.4 0 0 69.4 0 0
69.4 0 0 69.4 0 0 69.4 0 0 69.4
0 0 69.4 0 0 69.4 0 0 69.4 0
0 69.4 0 0 69.4 0 0 69.4 0 0
69.4 0 0 69.4 0 0 69.4 0 0 69.4
0 0 69.4 0 0 69.4 0 0 69.4 0
0 69.4 0 0 69.4 0 0 69.4 0 0
69.4 0 0 69.4 0 0 69.4 0 0 69.4
0 0 69.4 0 0 69.4 0 0 69.4 0
0 69.4 0 0 69.4 0 0 69.4 0 0
69.4 0 0 69.4 0 0 69.4 0 0 69.4
0 0 69.4 0 0 69.4 0 0 69.4 0
0 69.4 0 0 69.4 0 0 69.4 0 0
69.4 0 0 69.4 0 0 69.4 0 0 69.4
0 0 69.4 0 0 69.4 0 0 69.4 0
0 69.4 0 0 69.4 0 0 69.4 0 0
69.4 0 0 69.4 0 0 69.4 0 0 69.4
0 0 69.4 0 0 69.4 0 0 69.4 0
0 69.4 0 0 69.4 0 0 69.4 0 0
69.4 0 0 69.4 0 0 69.4 0 0 69.4
0 0 69.4 0 0 69.4 0 0 69.4 0
0 69.4 0 0 69.4 0 0 69.4 0 0
69.4 0 0 69.4 0 0 69.4 0 0 69.4
0 0 69.4 0 0 69.4 0 0 69.4 0
0 69.4 0 0 69.4 0 0 69.4 0 0
69.4 0 0 69.4 0 0 69.4 0 0 69.4
0 0 69.4 0 0 69.4 0 0 69.4 0
0 69.4 0 0 69.4 0 0 69.4 0 0
69.4 0 0 69.4 0 0 69.4 0 0 69.4
0 0 69.4 0 0 69.4 0 0 69.4 0
0 69.4 0 0 69.4 0 0 69.4 0 0
69.4 0 0 69.4 0 0 69.4 0 0 69.4
0 0 69.4 0 0 69.4 0 0 69.4 0
0 69.4 0 0 69.4 0 0 69.4 0 0
69.4 0 0 69.4 0 0 69.4 0 0 69.4
0 0 69.4 0 0 69.4 0 0 69.4 0
0 69.4 0 0 69.4 0 0 69.4 0 0
69.4 0 0 69.4 0 0 69.4 0 0 69.4
0 0 69.4 0 0 69.4 0 0 69.4 0
0 69.4 0 0 69.4 0 0 69.4 0 0
69.4 0 0 69.4 0 0 69.4 0 0 69.4
0 0 69.4 0 0 69.4 0 0 69.4 0
0 69.4 0 0 69.4 0 0 69.4 0 0
69.4 0 0 69.4 0 0 69.4 0 0 69.4
0 0 69.4 0 0 69.4 0 0 69.4 0
0 69.4 0 0 69.4 0 0 69.4 0 0
69.4 0 0 69.4 0 0 69.4 0 0 69.4
0 0 69.4 0 0 69.4 0 0 69.4 0
0 69.4 0 0 69.4 0 0 69.4 0 0
69.4 0 0 69.4 0 0 69.4 0 0 69.4
0 0 69.4 0 0 69.4 0 0 69.4 0
0 69.4 0 0 69.4 0 0 69.4 0 0
69.4 0 0 69.4 0 0 69.4 0 0 69.4
0 0 69.4 0 0 69.4 0 0 69.4 0
0 69.4 0 0 69.4 0 0 69.4 0 0
69.4 0 0 69.4 0 0 69.4 0 0 69.4
0 0 69.4 0 0 69.4 0 0 69.4 0
0 69.4 0 0 69.4 0 0 69.4 0 0
69.4 0 0 69.4 0 0 69.4 0 0 69.4
0 0 69.4 0 0 69.4 0 0 69.4 0
0 69.4 0 0 69.4 0 0 69.4 0 0
69.4 0 0 69.4 0 0 69.4 0 0 69.4
0 0 69.4 0 0 69.4 0 0 69.4 0
0 69.4 0 0 69.4 0 0 69.4 0 0
69.4 0 0 69.4 0 0 69.4 0 0 69.4
0 0 69.4 0 0 69.4 0 0 69.4 0
0 69.4 0 0 69.4 0 0 69.4 0 0
69.4 0 0 69.4 0 0 69.4 0 0 69.4
0 0 69.4 0 0 69.4 0 0 69.4 0
0 69.4 0 0 69.4 0 0 69.4 0 0
69.4 0 0 69.4 0 0 69.4 0 0 69.4
0 0 69.4 0 0 69.4 0 0 69.4 0
0 69.4 0 0 69.4 0 0 69.4 0 0
69.4 0 0 69.4 0 0 69.4 0 0 69.4
0 0 69.4 0 0 69.4 0 0 69.4 0
0 69.4 0 0 69.4 0 0 69.4 0 0
69.4 0 0 69.4 0 0 69.4 0 0 69.4
0 0 69.4 0 0 69.4 0 0 69.4 0
0 69.4 0 0 69.4 0 0 69.4 0 0
69.4 0 0 69.4 0 0 69.4 0 0 69.4
0 0 69.4 0 0 69.4 0 0 69.4 0
0 69.4 0 0 69.4 0 0 69.4 0 0
69.4 0 0 69.4 0 0 69.4 0 0 69.4
0 0 69.4 0 0 69.4 0 0 69.4 0
0 69.4 0 0 69.4 0 0 69.4 0 0
69.4 0 0 69.4 0 0 69.4 0 0 69.4
0 0 69.4 0 0 69.4 0 0 69.4 0
0 69.4 0 0 69.4 0 0 69.4 0 0
69.4 0 0 69.4 0 0 69.4 0 0 69.4
0 0 69.4 0 0 69.4 0 0 69.4 0
0 69.4 0 0 69.4 0 0 69.4 0 0
69.4 0 0 69.4 0 0 69.4 0 0 69.4
0 0 69.4 0 0 69.4 0 0 69.4 0
0 69.4 0 0 69.4 0 0 69.4 0 0
69.4 0 0 69.4 0 0 69.4 0 0 69.4
0 0 69.4 0 0 69.4 0 0 69.4 0
0 69.4 0 0 69.4 0 0 69.4 0 0
69.4 0 0 69.4 0 0 69.4 0 0 69.4
0 0 69.4 0 0 69.4 0 0 69.4 0
0 69.4 0 0 69.4 0 0 69.4 0 0
69.4 0 0 69.4 0 0 69.4 0 0 69.4
0 0 69.4 0 0 69.4 0 0 69.4 0
0 69.4 0 0 69.4 0 0 69.4 0 0
69.4 0 0 69.4 0 0 69.4 0 0 69.4
0 0 69.4 0 0 69.4 0 0 69.4 0
0 69.4 0 0 69.4 0 0 69.4 0 0
69.4 0 0 69.4 0 0 69.4 0 0 69.4
0 0 69.4 0 0 69.4 0 0 69.4 0
0 69.4 0 0 69.4 0 0 69.4 0 0
69.4 0 0 69.4 0 0 69.4 0 0 69.4
0 0 69.4 0 0 69.4 0 0 69.4 0
0 69.4 0 0 69.4 0 0 69.4 0 0
69.4 0 0 69.4 0 0 69.4 0 0 69.4
0 0 69.4 0 0 69.4 0 0 69.4 0
0 69.4 0 0 69.4 0 0 69.4 0 0
69.4 0 0 69.4 0 0 69.4 0 0 69.4
0 0 69.4 0 0 69.4 0 0 69.4 0
0 69.4 0 0 69.4 0 0 69.4 0 0
69.4 0 0 69.4 0 0 69.4 0 0 69.4
0 0 69.4 0 0 69.4 0 0 69.4 0
0 69.4 0 0 69.4 0 0 69.4 0 0
69.4 0 0 69.4 0 0 69.4 0 0 69.4
0 0 69.4 0 0 69.4 0 0 69.4 0
0 69.4 0 0 69.4 0 0 69.4 0 0
69.4 0 0 69.4 0 0 69.4 0 0 69.4
0 0 69.4 0 0 69.4 0 0 69.4 0
0 69.4 0 0 69.4 0 0 69.4 0 0
69.4 0 0 69.4 0 0 69.4 0 0 69.4
0 0 69.4 0 0 69.4 0 0 69.4 0
0 69.4 0 0 69.4 0 0 69.4 0 0
69.4 0 0 69.4 0 0 69.4 0 0 69.4
0 0 69.4 0 0 69.4 0 0 69.4 0
0 69.4 0 0 69.4 0 0 69.4 0 0
69.4 0 0 69.4 0 0 69.4 0 0 69.4
0 0 69.4 0 0 69.4 0 0 69.4 0
0 69.4 0 0 69.4 0 0 69.4 0 0
69.4 0 0 69.4 0 0 69.4 0 0 69.4
0 0 69.4 0 0 69.4 0 0 69.4 0
0 69.4 0 0 69.4 0 0 69.4 0 0
69.4 0 0 69.4 0 0 69.4 0 0 69.4
0 0 69.4 0 0 69.4 0 0 69.4 0
0 69.4 0 0 69.4 0 0 69.4 0 0
69.4 0 0 69.4 0 0 69.4 0 0 69.4
0 0 69.4 0 0 69.4 0 0 69.4 0
0 69.4 0 0 69.4 0 0 69.4 0 0
69.4 0 0 69.4 0 0 69.4 0 0 69.4
0 0 69.4 0 0 69.4 0 0 69.4 0
0 69.4 0 0 69.4 0 0 69.4 0 0
69.4 0 0 69.4 0 0 69.4 0 0 69.4
0 0 69.4 0 0 69.4 0 0 69.4 0
0 69.4 0 0 69.4 0 0 69.4 0 0
69.4 0 0 69.4 0 0 69.4 0 0 69.4
0 0 69.4 0 0 69.4 0 0 69.4 0
0 69.4 0 0 69.4 0 0 69.4 0 0
69.4 0 0 69.4 0 0 69.4 0 0 69.4
0 0 69.4 0 0 69.4 0 0 69.4 0
0 69.4 0 0 69.4 0 0 69.4 0 0
69.4 0 0 69.4 0 0 69.4 0 0 69.4
0 0 69.4 0 0 69.4 0 0 69.4 0
0 69.4 0 0 69.4 0 0 69.4 0 0
69.4 0 0 69.4 0 0 69.4 0 0 69.4
0 0 69.4 0 0 69.4 0 0 69.4 0
0 69.4 0 0 69.4 0 0 69.4 0 0
69.4 0 0 69.4 0 0 69.4 0 0 69.4
0 0 69.4 0 0 69.4 0 0 69.4 0
0 69.4 0 0 69.4 0 0 69.4 0 0
69.4 0 0 69.4 0 0 69.4 0 0 69.4
0 0 69.4 0 0 69.4 0 0 69.4 0
0 69.4 0 0 69.4 0 0 69.4 0 0
69.4 0 0 69.4 0 0 69.4 0 0 69.4
0 0 69.4 0 0 69.4 0 0 69.4 0
0 69.4 0 0 69.4 0 0 69.4 0 0
69.4 0 0 69.4 0 0 69.4 0 0 69.4
0 0 69.4 0 0 69.4 0 0 69.4 0
0 69.4 0 0 69.4 0 0 69.4 0 0
69.4 0 0 69.4 0 0 69.4 0 0 69.4
0 0 69.4 0 0 69.4 0 0 69.4 0
0 69.4 0 0 69.4 0 0 69.4 0 0
69.4 0 0 69.4 0 0 69.4 0 0 69.4
0 0 69.4 0 0 69.4 0 0 69.4 0
0 69.4 0 0 69.4 0 0 69.4 0 0
69.4 0 0 69.4 0 0 69.4 0 0 69.4
0 0 69.4 0 0 69.4 0 0 69.4 0
0 69.4 0 0 69.4 0 0 69.4 0 0
69.4 0 0 69.4 0 0 69.4 0 0 69.4
0 0 69.4 0 0 69.4 0 0 69.4 0
0 69.4 0 0 69.4 0 0 69.4 0 0
69.4 0 0 69.4 0 0 69.4 0 0 69.4
0 0 69.4 0 0 69.4 0 0 69.4 0
0 69.4 0 0 69.4 0 0 69.4 0 0
69.4 0 0 69.4 0 0 69.4 0 0 69.4
0 0 69.4 0 0 69.4 0 0 69.4 0
0 69.4 0 0 69.4 0 0 69.4 0 0
69.4 0 0 69.4 0 0 69.4 0 0 69.4
0 0 69.4 0 0 69.4 0 0 69.4 0
0 69.4 0 0 69.4 0 0 69.4 0 0
69.4 0 0 69.4 0 0 69.4 0 0 69.4
0 0 69.4 0 0 69.4 0 0 69.4 0
0 69.4 0 0 69.4 0 0 69.4 0 0
69.4 0 0 69.4 0 0 69.4 0 0 69.4
0 0 69.4 0 0 69.4 0 0 69.4 0
0 69.4 0 0 69.4 0 0 69.4 0 0
69.4 0 0 69.4 0 0 69.4 0 0 69.4
0 0 69.4 0 0 69.4 0 0 69.4 0
0 69.4 0 0 69.4 0 0 69.4 0 0
69.4 0 0 69.4 0 0 69.4 0 0 69.4
0 0 69.4 0 0 69.4 0 0 69.4 0
0 69.4 0 0 69.4 0 0 69.4 0 0
69.4 0 0 69.4 0 0 69.4 0 0 69.4
0 0 69.4 0 0 69.4 0 0 69.4 0
0 69.4 0 0 69.4 0 0 69.4 0 0
69.4 0 0 69.4 0 0 69.4 0 0 69.4
0 0 69.4 0 0 69.4 0 0 69.4 0
0 69.4 0 0 69.4 0 0 69.4 0 0
69.4 0 0 69.4 0 0 69.4 0 0 69.4
0 0 69.4 0 0 
C 3 772 float
-0.333333 2.4654e-05 0.05 -0.333333 2.4654e-05 0.05 -0.333333 4.94925e-05 0.05 -0.333333 4.94925e-05
0.05 -0.333333 9.95412e-05 0.05 -0.333333 9.95412e-05 0.05 -0.333333 0.000150339 0.05
-0.333333 0.000150339 0.05 -0.333333 0.000201897 0.05 -0.333333 0.000201897 0.05 -0.333333
0.000254226 0.05 -0.333333 0.000254226 0.05 -0.333333 0.000307338 0.05 -0.333333 0.000307338
0.05 -0.333333 0.000361245 0.05 -0.333333 0.000361245 0.05 -0.333333 0.000415959 0.05
-0.333333 0.000415959 0.05 -0.333333 0.000471492 0.05 -0.333333 0.000471492 0.05 -0.333333
0.000527856 0.05 -0.333333 0.000527856 0.05 -0.333333 0.000585063 0.05 -0.333333 0.000585063
0.05 -0.333333 0.000643126 0.05 -0.333333 0.000643126 0.05 -0.333333 0.000702058 0.05
-0.333333 0.000702058 0.05 -0.333333 0.000761872 0.05 -0.333333 0.000761872 0.05 -0.333333
0.000822581 0.05 -0.333333 0.000822581 0.05 -0.333333 0.000884199 0.05 -0.333333 0.000884199
0.05 -0.333333 0.000946738 0.05 -0.333333 0.000946738 0.05 -0.333333 0.00101021 0.05
-0.333333 0.00101021 0.05 -0.333333 0.00107464 0.05 -0.333333 0.00107464 0.05 -0.333333
0.00114003 0.05 -0.333333 0.00114003 0.05 -0.333333 0.0012064 0.05 -0.333333 0.0012064
0.05 -0.333333 0.00127376 0.05 -0.333333 0.00127376 0.05 -0.333333 0.00134213 0.05
-0.333333 0.00134213 0.05 -0.333333 0.00141152 0.05 -0.333333 0.00141152 0.05 -0.333333
0.00148195 0.05 -0.333333 0.00148195 0.05 -0.333333 0.00155343 0.05 -0.333333 0.00155343
0.05 -0.333333 0.00162599 0.05 -0.333333 0.00162599 0.05 -0.333333 0.00169963 0.05
-0.333333 0.00169963 0.05 -0.333333 0.00177437 0.05 -0.333333 0.00177437 0.05 -0.333333
0.00185023 0.05 -0.333333 0.00185023 0.05 -0.333333 0.00192723 0.05 -0.333333 0.00192723
0.05 -0.333333 0.00200537 0.05 -0.333333 0.00200537 0.05 -0.333333 0.00208469 0.05
-0.333333 0.00208469 0.05 -0.333333 0.0021652 0.05 -0.333333 0.0021652 0.05 -0.333333
0.00224691 0.05 -0.333333 0.00224691 0.05 -0.333333 0.00232984 0.05 -0.333333 0.00232984
0.05 -0.333333 0.00241401 0.05 -0.333333 0.00241401 0.05 -0.333333 0.00249944 0.05
-0.333333 0.00249944 0.05 -0.333333 0.00258615 0.05 -0.333333 0.00258615 0.05 -0.333333
0.00267416 0.05 -0.333333 0.00267416 0.05 -0.333333 0.00276349 0.05 -0.333333 0.00276349
0.05 -0.333333 0.00285415 0.05 -0.333333 0.00285415 0.05 -0.333333 0.00294617 0.05
-0.333333 0.00294617 0.05 -0.333333 0.00303956 0.05 -0.333333 0.00303956 0.05 -0.333333
0.00313436 0.05 -0.333333 0.00313436 0.05 -0.333333 0.00323057 0.05 -0.333333 0.00323057
0.05 -0.333333 0.00332822 0.05 -0.333333 0.00332822 0.05 -0.333333 0.00342733 0.05
-0.333333 0.00342733 0.05 -0.333333 0.00352793 0.05 -0.333333 0.00352793 0.05 -0.333333
0.00363003 0.05 -0.333333 0.00363003 0.05 -0.333333 0.00373366 0.05 -0.333333 0.00373366
0.05 -0.333333 0.00383884 0.05 -0.333333 0.00383884 0.05 -0.333333 0.0039456 0.05
-0.333333 0.0039456 0.05 -0.333333 0.00405395 0.05 -0.333333 0.00405395 0.05 -0.333333
0.00416392 0.05 -0.333333 0.00416392 0.05 -0.333333 0.00427554 0.05 -0.333333 0.00427554
0.05 -0.333333 0.00438883 0.05 -0.333333 0.00438883 0.05 -0.333333 0.00450381 0.05
-0.333333 0.00450381 0.05 -0.333333 0.00462052 0.05 -0.333333 0.00462052 0.05 -0.333333
0.00473897 0.05 -0.333333 0.00473897 0.05 -0.333333 0.00485919 0.05 -0.333333 0.00485919
0.05 -0.333333 0.00498122 0.05 -0.333333 0.00498122 0.05 -0.333333 0.00510507 0.05
-0.333333 0.00510507 0.05 -0.333333 0.00523077 0.05 -0.333333 0.00523077 0.05 -0.333333
0.00535835 0.05 -0.333333 0.00535835 0.05 -0.333333 0.00548785 0.05 -0.333333 0.00548785
0.05 -0.333333 0.00561928 0.05 -0.333333 0.00561928 0.05 -0.333333 0.00575267 0.05
-0.333333 0.00575267 0.05 -0.333333 0.00588807 0.05 -0.333333 0.00588807 0.05 -0.333333
0.00602549 0.05 -0.333333 0.00602549 0.05 -0.333333 0.00616496 0.05 -0.333333 0.00616496
0.05 -0.333333 0.00630653 0.05 -0.333333 0.00630653 0.05 -0.333333 0.00645021 0.05
-0.333333 0.00645021 0.05 -0.333333 0.00659604 0.05 -0.333333 0.00659604 0.05 -0.333333
0.00674406 0.05 -0.333333 0.00674406 0.05 -0.333333 0.00689429 0.05 -0.333333 0.00689429
0.05 -0.333333 0.00704676 0.05 -0.333333 0.00704676 0.05 -0.333333 0.00720152 0.05
-0.333333 0.00720152 0.05 -0.333333 0.0073586 0.05 -0.333333 0.0073586 0.05 -0.333333
0.00751802 0.05 -0.333333 0.00751802 0.05 -0.333333 0.00767983 0.05 -0.333333 0.00767983
0.05 -0.333333 0.00784407 0.05 -0.333333 0.00784407 0.05 -0.333333 0.00801076 0.05
-0.333333 0.00801076 0.05 -0.333333 0.00817994 0.05 -0.333333 0.00817994 0.05 -0.333333
0.00835166 0.05 -0.333333 0.00835166 0.05 -0.333333 0.00852594 0.05 -0.333333 0.00852594
0.05 -0.333333 0.00870284 0.05 -0.333333 0.00870284 0.05 -0.333333 0.00888238 0.05
-0.333333 0.00888238 0.05 -0.333333 0.00906461 0.05 -0.333333 0.00906461 0.05 -0.333333
0.00924956 0.05 -0.333333 0.00924956 0.05 -0.333333 0.00943729 0.05 -0.333333 0.00943729
0.05 -0.333333 0.00962782 0.05 -0.333333 0.00962782 0.05 -0.333333 0.0098212 0.05
-0.333333 0.0098212 0.05 -0.333333 0.0100175 0.05 -0.333333 0.0100175 0.05 -0.333333
0.0102167 0.05 -0.333333 0.0102167 0.05 -0.333333 0.0104189 0.05 -0.333333 0.0104189
0.05 -0.333333 0.0106241 0.05 -0.333333 0.0106241 0.05 -0.333333 0.0108324 0.05
-0.333333 0.0108324 0.05 -0.333333 0.0110438 0.05 -0.333333 0.0110438 0.05 -0.333333
0.0112584 0.05 -0.333333 0.0112584 0.05 -0.333333 0.0114762 0.05 -0.333333 0.0114762
0.05 -0.333333 0.0116972 0.05 -0.333333 0.0116972 0.05 -0.333333 0.0119216 0.05
-0.333333 0.0119216 0.05 -0.333333 0.0121493 0.05 -0.333333 0.0121493 0.05 -0.333333
0.0123804 0.05 -0.333333 0.0123804 0.05 -0.333333 0.012615 0.05 -0.333333 0.012615
0.05 -0.333333 0.012853 0.05 -0.333333 0.012853 0.05 -0.333333 0.0130947 0.05
-0.333333 0.0130947 0.05 -0.333333 0.0133399 0.05 -0.333333 0.0133399 0.05 -0.333333
0.0135889 0.05 -0.333333 0.0135889 0.05 -0.333333 0.0138415 0.05 -0.333333 0.0138415
0.05 -0.333333 0.014098 0.05 -0.333333 0.014098 0.05 -0.333333 0.0143583 0.05
-0.333333 0.0143583 0.05 -0.333333 0.0146224 0.05 -0.333333 0.0146224 0.05 -0.333333
0.0148906 0.05 -0.333333 0.0148906 0.05 -0.333333 0.0151627 0.05 -0.333333 0.0151627
0.05 -0.333333 0.0154389 0.05 -0.333333 0.0154389 0.05 -0.333333 0.0157192 0.05
-0.333333 0.0157192 0.05 -0.333333 0.0160038 0.05 -0.333333 0.0160038 0.05 -0.333333
0.0162926 0.05 -0.333333 0.0162926 0.05 -0.333333 0.0165857 0.05 -0.333333 0.0165857
0.05 -0.333333 0.0168832 0.05 -0.333333 0.0168832 0.05 -0.333333 0.0171852 0.05
-0.333333 0.0171852 0.05 -0.333333 0.0174916 0.05 -0.333333 0.0174916 0.05 -0.333333
0.0178027 0.05 -0.333333 0.0178027 0.05 -0.333333 0.0181184 0.05 -0.333333 0.0181184
0.05 -0.333333 0.0184388 0.05 -0.333333 0.0184388 0.05 -0.333333 0.0187641 0.05
-0.333333 0.0187641 0.05 -0.333333 0.0190942 0.05 -0.333333 0.0190942 0.05 -0.333333
0.0194292 0.05 -0.333333 0.0194292 0.05 -0.333333 0.0197693 0.05 -0.333333 0.0197693
0.05 -0.333333 0.0201144 0.05 -0.333333 0.0201144 0.05 -0.333333 0.0204647 0.05
-0.333333 0.0204647 0.05 -0.333333 0.0208203 0.05 -0.333333 0.0208203 0.05 -0.333333
0.0211812 0.05 -0.333333 0.0211812 0.05 -0.333333 0.0215474 0.05 -0.333333 0.0215474
0.05 -0.333333 0.0219192 0.05 -0.333333 0.0219192 0.05 -0.333333 0.0222965 0.05
-0.333333 0.0222965 0.05 -0.333333 0.0226795 0.05 -0.333333 0.0226795 0.05 -0.333333
0.0230682 0.05 -0.333333 0.0230682 0.05 -0.333333 0.0234627 0.05 -0.333333 0.0234627
0.05 -0.333333 0.0238631 0.05 -0.333333 0.0238631 0.05 -0.333333 0.0242695 0.05
-0.333333 0.0242695 0.05 -0.333333 0.024682 0.05 -0.333333 0.024682 0.05 -0.333333
0.0251006 0.05 -0.333333 0.0251006 0.05 -0.333333 0.0255256 0.05 -0.333333 0.0255256
0.05 -0.333333 0.0259569 0.05 -0.333333 0.0259569 0.05 -0.333333 0.0263946 0.05
-0.333333 0.0263946 0.05 -0.333333 0.0268389 0.05 -0.333333 0.0268389 0.05 -0.333333
0.0272898 0.05 -0.333333 0.0272898 0.05 -0.333333 0.0277475 0.05 -0.333333 0.0277475
0.05 -0.333333 0.028212 0.05 -0.333333 0.028212 0.05 -0.333333 0.0286835 0.05
-0.333333 0.0286835 0.05 -0.333333 0.0291621 0.05 -0.333333 0.0291621 0.05 -0.333333
0.0296478 0.05 -0.333333 0.0296478 0.05 -0.333333 0.0301407 0.05 -0.333333 0.0301407
0.05 -0.333333 0.0306411 0.05 -0.333333 0.0306411 0.05 -0.333333 0.0311489 0.05
-0.333333 0.0311489 0.05 -0.333333 0.0316644 0.05 -0.333333 0.0316644 0.05 -0.333333
0.0321875 0.05 -0.333333 0.0321875 0.05 -0.333333 0.0327185 0.05 -0.333333 0.0327185
0.05 -0.333333 0.0332574 0.05 -0.333333 0.0332574 0.05 -0.333333 0.0338044 0.05
-0.333333 0.0338044 0.05 -0.333333 0.0343596 0.05 -0.333333 0.0343596 0.05 -0.333333
0.034923 0.05 -0.333333 0.034923 0.05 -0.333333 0.035495 0.05 -0.333333 0.035495
0.05 -0.333333 0.0360754 0.05 -0.333333 0.0360754 0.05 -0.333333 0.0366646 0.05
-0.333333 0.0366646 0.05 -0.333333 0.0372626 0.05 -0.333333 0.0372626 0.05 -0.333333
0.0378695 0.05 -0.333333 0.0378695 0.05 -0.333333 0.0384855 0.05 -0.333333 0.0384855
0.05 -0.333333 0.0391107 0.05 -0.333333 0.0391107 0.05 -0.333333 0.0397453 0.05
-0.333333 0.0397453 0.05 -0.333333 0.0403894 0.05 -0.333333 0.0403894 0.05 -0.333333
0.0410431 0.05 -0.333333 0.0410431 0.05 -0.333333 0.0417066 0.05 -0.333333 0.0417066
0.05 -0.333333 0.04238 0.05 -0.333333 0.04238 0.05 -0.333333 0.0430635 0.05
-0.333333 0.0430635 0.05 -0.333333 0.0437572 0.05 -0.333333 0.0437572 0.05 -0.333333
0.0444613 0.05 -0.333333 0.0444613 0.05 -0.333333 0.045176 0.05 -0.333333 0.045176
0.05 -0.333333 0.0459013 0.05 -0.333333 0.0459013 0.05 -0.333333 0.0466375 0.05
-0.333333 0.0466375 0.05 -0.333333 0.0473847 0.05 -0.333333 0.0473847 0.05 -0.333333
0.0481431 0.05 -0.333333 0.0481431 0.05 -0.333333 0.0489129 0.05 -0.333333 0.0489129
0.05 -0.333333 0.0496941 0.05 -0.333333 0.0496941 0.05 -0.333333 0.0504871 0.05
-0.333333 0.0504871 0.05 -0.333333 0.0512919 0.05 -0.333333 0.0512919 0.05 -0.333333
0.0521088 0.05 -0.333333 0.0521088 0.05 -0.333333 0.0529379 0.05 -0.333333 0.0529379
0.05 -0.333333 0.0537794 0.05 -0.333333 0.0537794 0.05 -0.333333 0.0546334 0.05
-0.333333 0.0546334 0.05 -0.333333 0.0555003 0.05 -0.333333 0.0555003 0.05 -0.333333
0.0563802 0.05 -0.333333 0.0563802 0.05 -0.333333 0.0572732 0.05 -0.333333 0.0572732
0.05 -0.333333 0.0581795 0.05 -0.333333 0.0581795 0.05 -0.333333 0.0590995 0.05
-0.333333 0.0590995 0.05 -0.333333 0.0600332 0.05 -0.333333 0.0600332 0.05 -0.333333
0.0609808 0.05 -0.333333 0.0609808 0.05 -0.333333 0.0619427 0.05 -0.333333 0.0619427
0.05 -0.333333 0.0629189 0.05 -0.333333 0.0629189 0.05 -0.333333 0.0639098 0.05
-0.333333 0.0639098 0.05 -0.333333 0.0649155 0.05 -0.333333 0.0649155 0.05 -0.333333
0.0659362 0.05 -0.333333 0.0659362 0.05 -0.333333 0.0669722 0.05 -0.333333 0.0669722
0.05 -0.333333 0.0680237 0.05 -0.333333 0.0680237 0.05 -0.333333 0.069091 0.05
-0.333333 0.069091 0.05 -0.333333 0.0701742 0.05 -0.333333 0.0701742 0.05 -0.333333
0.0712736 0.05 -0.333333 0.0712736 0.05 -0.333333 0.0723895 0.05 -0.333333 0.0723895
0.05 -0.333333 0.0735221 0.05 -0.333333 0.0735221 0.05 -0.333333 0.0746716 0.05
-0.333333 0.0746716 0.05 -0.333333 0.0758383 0.05 -0.333333 0.0758383 0.05 -0.333333
0.0770225 0.05 -0.333333 0.0770225 0.05 -0.333333 0.0782244 0.05 -0.333333 0.0782244
0.05 -0.333333 0.0794443 0.05 -0.333333 0.0794443 0.05 -0.333333 0.0806825 0.05
-0.333333 0.0806825 0.05 -0.333333 0.0819392 0.05 -0.333333 0.0819392 0.05 -0.333333
0.0832146 0.05 -0.333333 0.0832146 0.05 -0.333333 0.0845092 0.05 -0.333333 0.0845092
0.05 -0.333333 0.0858232 0.05 -0.333333 0.0858232 0.05 -0.333333 0.0871568 0.05
-0.333333 0.0871568 0.05 -0.333333 0.0885103 0.05 -0.333333 0.0885103 0.05 -0.333333
0.0898841 0.05 -0.333333 0.0898841 0.05 -0.333333 0.0912785 0.05 -0.333333 0.0912785
0.05 -0.333333 0.0926938 0.05 -0.333333 0.0926938 0.05 -0.333333 0.0941302 0.05
-0.333333 0.0941302 0.05 -0.333333 0.0955881 0.05 -0.333333 0.0955881 0.05 -0.333333
0.0970678 0.05 -0.333333 0.0970678 0.05 -0.333333 0.0985697 0.05 -0.333333 0.0985697
0.05 -0.333333 0.100094 0.05 -0.333333 0.100094 0.05 -0.333333 0.101641 0.05
-0.333333 0.101641 0.05 -0.333333 0.103212 0.05 -0.333333 0.103212 0.05 -0.333333
0.104805 0.05 -0.333333 0.104805 0.05 -0.333333 0.106423 0.05 -0.333333 0.106423
0.05 -0.333333 0.108065 0.05 -0.333333 0.108065 0.05 -0.333333 0.109731 0.05
-0.333333 0.109731 0.05 -0.333333 0.111423 0.05 -0.333333 0.111423 0.05 -0.333333
0.113139 0.05 -0.333333 0.113139 0.05 -0.333333 0.114882 0.05 -0.333333 0.114882
0.05 -0.333333 0.11665 0.05 -0.333333 0.11665 0.05 -0.333333 0.118445 0.05
-0.333333 0.118445 0.05 -0.333333 0.120267 0.05 -0.333333 0.120267 0.05 -0.333333
0.122116 0.05 -0.333333 0.122116 0.05 -0.333333 0.123993 0.05 -0.333333 0.123993
0.05 -0.333333 0.125897 0.05 -0.333333 0.125897 0.05 -0.333333 0.127831 0.05
-0.333333 0.127831 0.05 -0.333333 0.129793 0.05 -0.333333 0.129793 0.05 -0.333333
0.131785 0.05 -0.333333 0.131785 0.05 -0.333333 0.133806 0.05 -0.333333 0.133806
0.05 -0.333333 0.135858 0.05 -0.333333 0.135858 0.05 -0.333333 0.13794 0.05
-0.333333 0.13794 0.05 -0.333333 0.140053 0.05 -0.333333 0.140053 0.05 -0.333333
0.142199 0.05 -0.333333 0.142199 0.05 -0.333333 0.144376 0.05 -0.333333 0.144376
0.05 -0.333333 0.146586 0.05 -0.333333 0.146586 0.05 -0.333333 0.148829 0.05
-0.333333 0.148829 0.05 -0.333333 0.151105 0.05 -0.333333 0.151105 0.05 -0.333333
0.153415 0.05 -0.333333 0.153415 0.05 -0.333333 0.155761 0.05 -0.333333 0.155761
0.05 -0.333333 0.158141 0.05 -0.333333 0.158141 0.05 -0.333333 0.160557 0.05
-0.333333 0.160557 0.05 -0.333333 0.163008 0.05 -0.333333 0.163008 0.05 -0.333333
0.165497 0.05 -0.333333 0.165497 0.05 -0.333333 0.168023 0.05 -0.333333 0.168023
0.05 -0.333333 0.170587 0.05 -0.333333 0.170587 0.05 -0.333333 0.173189 0.05
-0.333333 0.173189 0.05 -0.333333 0.17583 0.05 -0.333333 0.17583 0.05 -0.333333
0.17851 0.05 -0.333333 0.17851 0.05 -0.333333 0.181231 0.05 -0.333333 0.181231
0.05 -0.333333 0.183992 0.05 -0.333333 0.183992 0.05 -0.333333 0.186795 0.05
-0.333333 0.186795 0.05 -0.333333 0.189639 0.05 -0.333333 0.189639 0.05 -0.333333
0.192527 0.05 -0.333333 0.192527 0.05 -0.333333 0.195457 0.05 -0.333333 0.195457
0.05 -0.333333 0.198431 0.05 -0.333333 0.198431 0.05 -0.333333 0.20145 0.05
-0.333333 0.20145 0.05 -0.333333 0.204514 0.05 -0.333333 0.204514 0.05 -0.333333
0.207624 0.05 -0.333333 0.207624 0.05 -0.333333 0.21078 0.05 -0.333333 0.21078
0.05 -0.333333 0.213983 0.05 -0.333333 0.213983 0.05 -0.333333 0.217235 0.05
-0.333333 0.217235 0.05 -0.333333 0.220535 0.05 -0.333333 0.220535 0.05 -0.333333
0.223884 0.05 -0.333333 0.223884 0.05 -0.333333 0.227284 0.05 -0.333333 0.227284
0.05 -0.333333 0.230734 0.05 -0.333333 0.230734 0.05 -0.333333 0.234237 0.05
-0.333333 0.234237 0.05 -0.333333 0.237791 0.05 -0.333333 0.237791 0.05 -0.333333
0.241399 0.05 -0.333333 0.241399 0.05 -0.333333 0.245061 0.05 -0.333333 0.245061
0.05 -0.333333 0.248777 0.05 -0.333333 0.248777 0.05 -0.333333 0.252549 0.05
-0.333333 0.252549 0.05 -0.333333 0.256378 0.05 -0.333333 0.256378 0.05 -0.333333
0.260264 0.05 -0.333333 0.260264 0.05 -0.333333 0.264208 0.05 -0.333333 0.264208
0.05 -0.333333 0.268211 0.05 -0.333333 0.268211 0.05 -0.333333 0.272274 0.05
-0.333333 0.272274 0.05 -0.333333 0.276397 0.05 -0.333333 0.276397 0.05 -0.333333
0.280583 0.05 -0.333333 0.280583 0.05 -0.333333 0.284831 0.05 -0.333333 0.284831
0.05 -0.333333 0.289143 0.05 -0.333333 0.289143 0.05 -0.333333 0.293519 0.05
-0.333333 0.293519 0.05 -0.333333 0.29796 0.05 -0.333333 0.29796 0.05 -0.333333
0.302468 0.05 -0.333333 0.302468 0.05 -0.333333 0.307044 0.05 -0.333333 0.307044
0.05 -0.333333 0.311688 0.05 -0.333333 0.311688 0.05 -0.333333 0.316402 0.05
-0.333333 0.316402 0.05 -0.333333 0.321186 0.05 -0.333333 0.321186 0.05 -0.333333
0.326041 0.05 -0.333333 0.326041 0.05 -0.333333 0.33097 0.05 -0.333333 0.33097
0.05 -0.333333 0.335972 0.05 -0.333333 0.335972 0.05 -0.333333 0.341049 0.05
-0.333333 0.341049 0.05 -0.333333 0.346202 0.05 -0.333333 0.346202 0.05 -0.333333
0.351432 0.05 -0.333333 0.351432 0.05 -0.333333 0.35674 0.05 -0.333333 0.35674
0.05 -0.333333 0.362128 0.05 -0.333333 0.362128 0.05 -0.333333 0.367596 0.05
-0.333333 0.367596 0.05 -0.333333 0.373146 0.05 -0.333333 0.373146 0.05 -0.333333
0.37878 0.05 -0.333333 0.37878 0.05 -0.333333 0.384497 0.05 -0.333333 0.384497
0.05 -0.333333 0.3903 0.05 -0.333333 0.3903 0.05 -0.333333 0.39619 0.05
-0.333333 0.39619 0.05 -0.333333 0.402168 0.05 -0.333333 0.402168 0.05 -0.333333
0.408236 0.05 -0.333333 0.408236 0.05 -0.333333 0.414394 0.05 -0.333333 0.414394
0.05 -0.333333 0.420645 0.05 -0.333333 0.420645 0.05 -0.333333 0.426989 0.05
-0.333333 0.426989 0.05 -0.333333 0.433428 0.05 -0.333333 0.433428 0.05 -0.333333
0.439963 0.05 -0.333333 0.439963 0.05 -0.333333 0.446596 0.05 -0.333333 0.446596
0.05 -0.333333 0.453328 0.05 -0.333333 0.453328 0.05 -0.333333 0.460162 0.05
-0.333333 0.460162 0.05 -0.333333 0.467097 0.05 -0.333333 0.467097 0.05 -0.333333
0.474136 0.05 -0.333333 0.474136 0.05 -0.333333 0.481281 0.05 -0.333333 0.481281
0.05 -0.333333 0.488532 0.05 -0.333333 0.488532 0.05 -0.333333 0.495892 0.05
-0.333333 0.495892 0.05 -0.333333 0.503362 0.05 -0.333333 0.503362 0.05 -0.333333
0.510944 0.05 -0.333333 0.510944 0.05 -0.333333 0.518639 0.05 -0.333333 0.518639
0.05 -0.333333 0.52645 0.05 -0.333333 0.52645 0.05 -0.333333 0.534377 0.05
-0.333333 0.534377 0.05 -0.333333 0.542423 0.05 -0.333333 0.542423 0.05 -0.333333
0.550589 0.05 -0.333333 0.550589 0.05 -0.333333 0.558878 0.05 -0.333333 0.558878
0.05 -0.333333 0.56729 0.05 -0.333333 0.56729 0.05 -0.333333 0.575829 0.05
-0.333333 0.575829 0.05 -0.333333 0.584495 0.05 -0.333333 0.584495 0.05 -0.333333
0.593291 0.05 -0.333333 0.593291 0.05 -0.333333 0.602219 0.05 -0.333333 0.602219
0.05 -0.333333 0.61128 0.05 -0.333333 0.61128 0.05 -0.333333 0.620477 0.05
-0.333333 0.620477 0.05 -0.333333 0.629811 0.05 -0.333333 0.629811 0.05 -0.333333
0.639285 0.05 -0.333333 0.639285 0.05 -0.333333 0.648901 0.05 -0.333333 0.648901
0.05 -0.333333 0.658661 0.05 -0.333333 0.658661 0.05 -0.333333 0.668567 0.05
-0.333333 0.668567 0.05 -0.333333 0.678621 0.05 -0.333333 0.678621 0.05 -0.333333
0.688825 0.05 -0.333333 0.688825 0.05 -0.333333 0.699182 0.05 -0.333333 0.699182
0.05 -0.333333 0.709694 0.05 -0.333333 0.709694 0.05 -0.333333 0.720364 0.05
-0.333333 0.720364 0.05 -0.333333 0.731193 0.05 -0.333333 0.731193 0.05 -0.333333
0.742184 0.05 -0.333333 0.742184 0.05 -0.333333 0.75334 0.05 -0.333333 0.75334
0.05 -0.333333 0.764663 0.05 -0.333333 0.764663 0.05 -0.333333 0.776155 0.05
-0.333333 0.776155 0.05 -0.333333 0.787819 0.05 -0.333333 0.787819 0.05 -0.333333
0.799657 0.05 -0.333333 0.799657 0.05 -0.333333 0.811673 0.05 -0.333333 0.811673
0.05 -0.333333 0.823869 0.05 -0.333333 0.823869 0.05 -0.333333 0.836247 0.05
-0.333333 0.836247 0.05 -0.333333 0.84881 0.05 -0.333333 0.84881 0.05 -0.333333
0.861561 0.05 -0.333333 0.861561 0.05 -0.333333 0.874503 0.05 -0.333333 0.874503
0.05 -0.333333 0.887639 0.05 -0.333333 0.887639 0.05 -0.333333 0.900971 0.05
-0.333333 0.900971 0.05 -0.333333 0.914503 0.05 -0.333333 0.914503 0.05 -0.333333
0.928237 0.05 -0.333333 0.928237 0.05 -0.333333 0.942177 0.05 -0.333333 0.942177
0.05 -0.333333 0.956326 0.05 -0.333333 0.956326 0.05 -0.333333 0.970686 0.05
-0.333333 0.970686 0.05 -0.333333 0.985261 0.05 -0.333333 0.985261 0.05 -0.333333
0.992604 0.05 -0.333333 0.992604 0.05 
